! Coilcraft 0805LS-681 Chip Inductor				
! 18 September 2002			
# MHZ S MA R 50
!Freq             MagS11           AngS11           MagS21           AngS21           MagS12           AngS12           MagS22           AngS22
1                0.0425789304     80.783357        0.994068967      -2.42318749      0.994068967      -2.42318749      0.0425789345     80.7833595       
1.496            0.0633851226     81.5262195       0.992641385      -3.62109297      0.992641385      -3.62109297      0.0633851288     81.5262212       
1.992            0.0841296253     81.275178        0.99073428       -4.81471764      0.99073428       -4.81471764      0.0841296336     81.2751793       
2.488            0.104759886      80.6293067       0.98836231       -6.00291082      0.98836231       -6.00291082      0.104759896      80.6293078       
2.984            0.125240476      79.7908296       0.985539991      -7.18456938      0.985539991      -7.18456938      0.125240488      79.7908306       
3.48             0.145541844      78.8471293       0.982282332      -8.35863798      0.982282332      -8.35863798      0.145541859      78.8471301       
3.976            0.165637548      77.8422961       0.978605085      -9.52411095      0.978605085      -9.52411095      0.165637565      77.8422969       
4.472            0.185503389      76.8011292       0.974524818      -10.6800344      0.974524818      -10.6800344      0.185503407      76.80113         
4.968            0.205117109      75.7387619       0.970058893      -11.8255085      0.970058893      -11.8255085      0.205117129      75.7387626       
5.464            0.224458288      74.6650393       0.965225397      -12.9596895      0.965225397      -12.9596895      0.22445831       74.66504         
5.96             0.243508303      73.5867064       0.960043042      -14.0817912      0.960043042      -14.0817912      0.243508327      73.5867071       
6.456            0.262250319      72.5085833       0.954531042      -15.1910861      0.954531042      -15.1910861      0.262250345      72.508584        
6.952            0.280669275      71.4342363       0.94870899       -16.2869063      0.94870899       -16.2869063      0.280669303      71.434237        
7.448            0.298751866      70.3663795       0.942596725      -17.3686439      0.942596725      -17.3686439      0.298751896      70.3663802       
7.944            0.316486521      69.3071253       0.936214208      -18.4357503      0.936214208      -18.4357503      0.316486552      69.307126        
8.44             0.333863357      68.2581467       0.929581393      -19.4877361      0.929581393      -19.4877361      0.33386339       68.2581474       
8.936            0.350874135      67.2207854       0.922718111      -20.5241699      0.922718111      -20.5241699      0.35087417       67.2207861       
9.432            0.367512198      66.1961267       0.91564396       -21.5446766      0.91564396       -21.5446766      0.367512235      66.1961273       
9.928            0.383772403      65.1850517       0.908378208      -22.5489364      0.908378208      -22.5489364      0.383772441      65.1850523       
10.424           0.399651044      64.188276        0.900939699      -23.5366822      0.900939699      -23.5366822      0.399651084      64.1882766       
10.92            0.415145772      63.2063779       0.893346775      -24.5076977      0.893346775      -24.5076977      0.415145813      63.2063786       
11.416           0.430255503      62.2398203       0.885617212      -25.4618148      0.885617212      -25.4618148      0.430255547      62.239821        
11.912           0.444980337      61.2889675       0.877768156      -26.3989114      0.877768156      -26.3989114      0.444980382      61.2889682       
12.408           0.459321459      60.3540986       0.869816081      -27.3189083      0.869816081      -27.3189083      0.459321505      60.3540993       
12.904           0.47328105       59.435419        0.86177675       -28.2217669      0.86177675       -28.2217669      0.473281097      59.4354197       
13.4             0.486862198      58.5330692       0.853665186      -29.1074863      0.853665186      -29.1074863      0.486862247      58.53307         
13.896           0.500068807      57.6471329       0.845495656      -29.9761003      0.845495656      -29.9761003      0.500068857      57.6471336       
14.392           0.51290551       56.7776433       0.837281657      -30.8276749      0.837281657      -30.8276749      0.512905561      56.7776441       
14.888           0.525377586      55.9245894       0.829035912      -31.6623059      0.829035912      -31.6623059      0.525377639      55.9245902       
15.384           0.53749088       55.0879209       0.820770376      -32.4801155      0.820770376      -32.4801155      0.537490934      55.0879217       
15.88            0.549251728      54.2675529       0.812496237      -33.2812506      0.812496237      -33.2812506      0.549251783      54.2675537       
16.376           0.560666884      53.4633697       0.804223937      -34.0658798      0.804223937      -34.0658798      0.56066694       53.4633705       
16.872           0.571743453      52.6752289       0.795963183      -34.8341913      0.795963183      -34.8341913      0.57174351       52.6752298       
17.368           0.582488832      51.9029646       0.787722969      -35.5863906      0.787722969      -35.5863906      0.582488891      51.9029655       
17.864           0.59291065       51.1463904       0.7795116        -36.3226984      0.7795116        -36.3226984      0.59291071       51.1463913       
18.36            0.603016714      50.4053019       0.771336717      -37.0433488      0.771336717      -37.0433488      0.603016775      50.4053028       
18.856           0.612814965      49.6794796       0.763205323      -37.7485871      0.763205323      -37.7485871      0.612815026      49.6794805       
19.352           0.622313429      48.9686911       0.755123814      -38.4386684      0.755123814      -38.4386684      0.622313492      48.968692        
19.848           0.631520183      48.2726928       0.747098004      -39.1138559      0.747098004      -39.1138559      0.631520247      48.2726937       
20.344           0.640443317      47.5912322       0.739133159      -39.7744193      0.739133159      -39.7744193      0.640443382      47.5912331       
20.84            0.6490909        46.9240492       0.731234025      -40.4206335      0.731234025      -40.4206335      0.649090966      46.9240502       
21.336           0.657470958      46.2708782       0.723404856      -41.0527776      0.723404856      -41.0527776      0.657471024      46.2708792       
21.832           0.665591443      45.6314486       0.715649445      -41.6711333      0.715649445      -41.6711333      0.665591511      45.6314497       
22.328           0.673460218      45.005487        0.707971154      -42.2759841      0.707971154      -42.2759841      0.673460286      45.0054881       
22.824           0.681085033      44.3927177       0.700372938      -42.8676147      0.700372938      -42.8676147      0.681085101      44.3927188       
23.32            0.688473511      43.7928638       0.692857374      -43.4463093      0.692857374      -43.4463093      0.688473581      43.7928649       
23.816           0.695633138      43.2056482       0.685426688      -44.0123518      0.685426688      -44.0123518      0.695633209      43.2056493       
24.312           0.702571247      42.6307944       0.678082781      -44.5660244      0.678082781      -44.5660244      0.702571319      42.6307956       
24.808           0.709295011      42.0680272       0.670827248      -45.1076075      0.670827248      -45.1076075      0.709295083      42.0680283       
25.304           0.715811436      41.5170731       0.663661405      -45.6373787      0.663661405      -45.6373787      0.715811508      41.5170743       
25.8             0.722127353      40.9776612       0.65658631       -46.1556129      0.65658631       -46.1556129      0.722127427      40.9776624       
26.296           0.728249419      40.4495234       0.649602783      -46.6625811      0.649602783      -46.6625811      0.728249493      40.4495246       
26.792           0.734184108      39.932395        0.642711425      -47.1585509      0.642711425      -47.1585509      0.734184183      39.9323962       
27.288           0.739937712      39.4260148       0.635912638      -47.6437858      0.635912638      -47.6437858      0.739937787      39.426016        
27.784           0.745516341      38.9301258       0.62920664       -48.1185447      0.62920664       -48.1185447      0.745516417      38.930127        
28.28            0.75092592       38.4444749       0.622593481      -48.5830821      0.622593481      -48.5830821      0.750925997      38.4444762       
28.776           0.756172196      37.9688139       0.61607306       -49.0376477      0.61607306       -49.0376477      0.756172273      37.9688152       
29.272           0.76126073       37.5028988       0.609645139      -49.4824865      0.609645139      -49.4824865      0.761260808      37.5029001       
29.768           0.766196909      37.0464904       0.603309354      -49.9178383      0.603309354      -49.9178383      0.766196988      37.0464917       
30.264           0.770985942      36.5993546       0.597065228      -50.3439379      0.597065228      -50.3439379      0.770986021      36.599356        
30.76            0.775632866      36.1612621       0.590912184      -50.761015       0.590912184      -50.761015       0.775632945      36.1612635       
31.256           0.780142546      35.7319886       0.584849553      -51.1692939      0.584849553      -51.1692939      0.780142626      35.73199         
31.752           0.784519685      35.3113147       0.578876587      -51.5689941      0.578876587      -51.5689941      0.784519765      35.3113161       
32.248           0.78876882       34.8990264       0.572992462      -51.9603296      0.572992462      -51.9603296      0.788768901      34.8990278       
32.744           0.792894333      34.4949143       0.567196296      -52.3435094      0.567196296      -52.3435094      0.792894414      34.4949158       
33.24            0.796900448      34.0987744       0.561487145      -52.7187372      0.561487145      -52.7187372      0.79690053       34.0987759       
33.736           0.800791244      33.7104075       0.555864021      -53.0862118      0.555864021      -53.0862118      0.800791326      33.710409        
34.232           0.804570651      33.3296195       0.550325891      -53.4461268      0.550325891      -53.4461268      0.804570734      33.329621        
34.728           0.808242459      32.956221        0.544871685      -53.7986708      0.544871685      -53.7986708      0.808242542      32.9562225       
35.224           0.81181032       32.5900276       0.539500303      -54.1440277      0.539500303      -54.1440277      0.811810404      32.5900291       
35.72            0.815277757      32.2308596       0.53421062       -54.4823764      0.53421062       -54.4823764      0.815277841      32.2308611       
36.216           0.81864816       31.8785421       0.529001488      -54.8138909      0.529001488      -54.8138909      0.818648244      31.8785436       
36.712           0.821924799      31.5329046       0.523871741      -55.1387409      0.523871741      -55.1387409      0.821924884      31.5329062       
37.208           0.825110822      31.1937814       0.518820201      -55.4570911      0.518820201      -55.4570911      0.825110907      31.193783        
37.704           0.828209262      30.8610111       0.51384568       -55.7691022      0.51384568       -55.7691022      0.828209348      30.8610128       
38.2             0.831223041      30.5344367       0.508946982      -56.07493        0.508946982      -56.07493        0.831223128      30.5344383       
38.696           0.834154974      30.2139053       0.504122908      -56.3747264      0.504122908      -56.3747264      0.834155061      30.213907        
39.192           0.83700777       29.8992685       0.499372257      -56.6686389      0.499372257      -56.6686389      0.837007857      29.8992702       
39.688           0.83978404       29.5903815       0.494693829      -56.956811       0.494693829      -56.956811       0.839784127      29.5903832       
40.184           0.842486297      29.287104        0.490086427      -57.2393822      0.490086427      -57.2393822      0.842486385      29.2871057       
40.68            0.845116965      28.9892991       0.485548858      -57.516488       0.485548858      -57.516488       0.845117053      28.9893009       
41.176           0.847678374      28.6968341       0.481079938      -57.7882602      0.481079938      -57.7882602      0.847678462      28.6968358       
41.672           0.850172771      28.4095795       0.476678488      -58.054827       0.476678488      -58.054827       0.85017286       28.4095813       
42.168           0.852602321      28.1274099       0.472343339      -58.3163129      0.472343339      -58.3163129      0.85260241       28.1274117       
42.664           0.854969108      27.850203        0.468073335      -58.5728388      0.468073335      -58.5728388      0.854969197      27.8502048       
43.16            0.857275139      27.5778401       0.463867329      -58.8245223      0.463867329      -58.8245223      0.857275228      27.5778419       
43.656           0.859522349      27.3102057       0.459724188      -59.0714778      0.459724188      -59.0714778      0.859522439      27.3102075       
44.152           0.861712602      27.0471876       0.45564279       -59.3138163      0.45564279       -59.3138163      0.861712692      27.0471894       
44.648           0.863847694      26.7886766       0.45162203       -59.5516457      0.45162203       -59.5516457      0.863847784      26.7886785       
45.144           0.865929355      26.5345667       0.447660816      -59.785071       0.447660816      -59.785071       0.865929446      26.5345686       
45.64            0.867959254      26.2847547       0.443758072      -60.0141942      0.443758072      -60.0141942      0.867959346      26.2847566       
46.136           0.869938999      26.0391404       0.439912737      -60.2391142      0.439912737      -60.2391142      0.86993909       26.0391423       
46.632           0.871870138      25.7976262       0.436123765      -60.4599276      0.436123765      -60.4599276      0.87187023       25.7976281       
47.128           0.873754165      25.5601173       0.432390128      -60.6767278      0.432390128      -60.6767278      0.873754258      25.5601193       
47.624           0.875592522      25.3265217       0.428710814      -60.8896059      0.428710814      -60.8896059      0.875592615      25.3265237       
48.12            0.877386597      25.0967496       0.425084827      -61.0986503      0.425084827      -61.0986503      0.87738669       25.0967516       
48.616           0.87913773       24.8707139       0.421511187      -61.3039471      0.421511187      -61.3039471      0.879137823      24.8707159       
49.112           0.880847212      24.6483298       0.417988933      -61.5055798      0.417988933      -61.5055798      0.880847306      24.6483319       
49.608           0.882516291      24.429515        0.414517119      -61.7036297      0.414517119      -61.7036297      0.882516385      24.4295171       
50.104           0.884146168      24.2141891       0.411094816      -61.8981759      0.411094816      -61.8981759      0.884146262      24.2141912       
50.6             0.885738004      24.0022743       0.407721114      -62.0892952      0.407721114      -62.0892952      0.885738099      24.0022764       
51.096           0.887292919      23.7936947       0.404395117      -62.2770623      0.404395117      -62.2770623      0.887293014      23.7936968       
51.592           0.888811994      23.5883763       0.401115946      -62.4615499      0.401115946      -62.4615499      0.888812089      23.5883785       
52.088           0.890296271      23.3862476       0.397882741      -62.6428288      0.397882741      -62.6428288      0.890296366      23.3862497       
52.584           0.891746758      23.1872384       0.394694655      -62.8209676      0.394694655      -62.8209676      0.891746854      23.1872406       
53.08            0.893164428      22.991281        0.39155086       -62.9960332      0.39155086       -62.9960332      0.893164524      22.9912832       
53.576           0.894550221      22.7983091       0.388450543      -63.1680908      0.388450543      -63.1680908      0.894550317      22.7983113       
54.072           0.895905043      22.6082583       0.385392906      -63.3372036      0.385392906      -63.3372036      0.895905139      22.6082605       
54.568           0.897229771      22.4210659       0.382377169      -63.5034332      0.382377169      -63.5034332      0.897229867      22.4210681       
55.064           0.898525252      22.2366709       0.379402565      -63.6668396      0.379402565      -63.6668396      0.898525349      22.2366731       
55.56            0.899792305      22.0550139       0.376468345      -63.8274811      0.376468345      -63.8274811      0.899792402      22.0550162       
56.056           0.90103172       21.876037        0.373573772      -63.9854145      0.373573772      -63.9854145      0.901031818      21.8760393       
56.552           0.902244263      21.699684        0.370718126      -64.140695       0.370718126      -64.140695       0.902244361      21.6996864       
57.048           0.903430673      21.5259          0.367900701      -64.2933766      0.367900701      -64.2933766      0.90343077       21.5259024       
57.544           0.904591664      21.3546316       0.365120805      -64.4435115      0.365120805      -64.4435115      0.904591762      21.354634        
58.04            0.905727927      21.1858267       0.362377762      -64.5911507      0.362377762      -64.5911507      0.905728026      21.1858291       
58.536           0.906840133      21.0194347       0.359670907      -64.736344       0.359670907      -64.736344       0.906840232      21.0194371       
59.032           0.907928927      20.8554062       0.35699959       -64.8791396      0.35699959       -64.8791396      0.907929026      20.8554086       
59.528           0.908994936      20.6936931       0.354363175      -65.0195848      0.354363175      -65.0195848      0.908995035      20.6936955       
60.024           0.910038764      20.5342484       0.351761038      -65.1577254      0.351761038      -65.1577254      0.910038864      20.5342509       
60.52            0.911061         20.3770266       0.349192569      -65.2936061      0.349192569      -65.2936061      0.9110611        20.3770291       
61.016           0.91206221       20.2219831       0.34665717       -65.4272705      0.34665717       -65.4272705      0.91206231       20.2219856       
61.512           0.913042943      20.0690744       0.344154255      -65.558761       0.344154255      -65.558761       0.913043043      20.0690769       
62.008           0.914003733      19.9182583       0.341683251      -65.688119       0.341683251      -65.688119       0.914003833      19.9182608       
62.504           0.914945093      19.7694935       0.339243596      -65.8153848      0.339243596      -65.8153848      0.914945194      19.769496        
63               0.915867524      19.6227398       0.336834741      -65.9405977      0.336834741      -65.9405977      0.915867625      19.6227423       
63.496           0.916771509      19.4779579       0.334456146      -66.063796       0.334456146      -66.063796       0.91677161       19.4779605       
63.992           0.917657517      19.3351096       0.332107286      -66.1850171      0.332107286      -66.1850171      0.917657618      19.3351122       
64.488           0.918526001      19.1941577       0.329787644      -66.3042973      0.329787644      -66.3042973      0.918526102      19.1941603       
64.984           0.919377402      19.0550656       0.327496713      -66.4216722      0.327496713      -66.4216722      0.919377504      19.0550682       
65.48            0.920212147      18.9177978       0.325233999      -66.5371763      0.325233999      -66.5371763      0.920212249      18.9178005       
65.976           0.921030649      18.7823198       0.322999018      -66.6508435      0.322999018      -66.6508435      0.921030751      18.7823225       
66.472           0.921833309      18.6485977       0.320791293      -66.7627067      0.320791293      -66.7627067      0.921833412      18.6486004       
66.968           0.922620518      18.5165985       0.318610362      -66.872798       0.318610362      -66.872798       0.92262062       18.5166012       
67.464           0.923392651      18.38629         0.316455767      -66.9811489      0.316455767      -66.9811489      0.923392753      18.3862927       
67.96            0.924150075      18.2576407       0.314327063      -67.0877898      0.314327063      -67.0877898      0.924150178      18.2576434       
68.456           0.924893145      18.13062         0.312223814      -67.1927507      0.312223814      -67.1927507      0.924893248      18.1306228       
68.952           0.925622206      18.0051979       0.310145592      -67.2960606      0.310145592      -67.2960606      0.92562231       18.0052007       
69.448           0.926337593      17.8813452       0.308091977      -67.3977481      0.308091977      -67.3977481      0.926337697      17.881348        
69.944           0.927039631      17.7590332       0.306062559      -67.4978409      0.306062559      -67.4978409      0.927039735      17.759036        
70.44            0.927728634      17.6382341       0.304056937      -67.5963661      0.304056937      -67.5963661      0.927728738      17.6382369       
70.936           0.928404909      17.5189206       0.302074716      -67.6933501      0.302074716      -67.6933501      0.928405014      17.5189235       
71.432           0.929068754      17.4010661       0.300115511      -67.7888189      0.300115511      -67.7888189      0.929068858      17.4010689       
71.928           0.929720457      17.2846445       0.298178945      -67.8827976      0.298178945      -67.8827976      0.929720562      17.2846474       
72.424           0.930360298      17.1696305       0.296264646      -67.9753109      0.296264646      -67.9753109      0.930360404      17.1696334       
72.92            0.930988551      17.0559992       0.294372252      -68.0663829      0.294372252      -68.0663829      0.930988657      17.0560021       
73.416           0.931605481      16.9437264       0.292501408      -68.1560371      0.292501408      -68.1560371      0.931605587      16.9437293       
73.912           0.932211344      16.8327882       0.290651766      -68.2442965      0.290651766      -68.2442965      0.93221145       16.8327911       
74.408           0.932806392      16.7231616       0.288822985      -68.3311836      0.288822985      -68.3311836      0.932806498      16.7231645       
74.904           0.933390867      16.6148238       0.28701473       -68.4167202      0.28701473       -68.4167202      0.933390973      16.6148268       
75.4             0.933965005      16.5077527       0.285226673      -68.5009279      0.285226673      -68.5009279      0.933965112      16.5077557       
75.896           0.934529038      16.4019267       0.283458494      -68.5838276      0.283458494      -68.5838276      0.934529145      16.4019297       
76.392           0.935083188      16.2973245       0.281709878      -68.6654397      0.281709878      -68.6654397      0.935083295      16.2973275       
76.888           0.935627674      16.1939254       0.279980517      -68.7457844      0.279980517      -68.7457844      0.935627781      16.1939284       
77.384           0.936162706      16.0917091       0.278270107      -68.8248812      0.278270107      -68.8248812      0.936162813      16.0917121       
77.88            0.936688491      15.9906558       0.276578354      -68.9027493      0.276578354      -68.9027493      0.936688599      15.9906589       
78.376           0.937205229      15.8907462       0.274904966      -68.9794073      0.274904966      -68.9794073      0.937205337      15.8907492       
78.872           0.937713115      15.7919611       0.273249659      -69.0548737      0.273249659      -69.0548737      0.937713224      15.7919642       
79.368           0.93821234       15.6942822       0.271612153      -69.1291663      0.271612153      -69.1291663      0.938212448      15.6942853       
79.864           0.938703087      15.5976911       0.269992175      -69.2023026      0.269992175      -69.2023026      0.938703196      15.5976942       
80.36            0.939185537      15.5021702       0.268389457      -69.2742998      0.268389457      -69.2742998      0.939185646      15.5021733       
80.856           0.939659865      15.4077019       0.266803734      -69.3451747      0.266803734      -69.3451747      0.939659974      15.4077051       
81.352           0.940126241      15.3142693       0.26523475       -69.4149437      0.26523475       -69.4149437      0.940126351      15.3142725       
81.848           0.940584832      15.2218558       0.26368225       -69.4836228      0.26368225       -69.4836228      0.940584942      15.221859        
82.344           0.9410358        15.1304448       0.262145987      -69.5512278      0.262145987      -69.5512278      0.94103591       15.1304481       
82.84            0.941479302      15.0400206       0.260625718      -69.617774       0.260625718      -69.617774       0.941479412      15.0400238       
83.336           0.941915491      14.9505674       0.259121203      -69.6832766      0.259121203      -69.6832766      0.941915602      14.9505706       
83.832           0.942344519      14.8620699       0.257632208      -69.7477502      0.257632208      -69.7477502      0.942344629      14.8620731       
84.328           0.94276653       14.774513        0.256158503      -69.8112093      0.256158503      -69.8112093      0.94276664       14.7745163       
84.824           0.943181666      14.6878822       0.254699864      -69.8736681      0.254699864      -69.8736681      0.943181777      14.6878854       
85.32            0.943590067      14.6021628       0.253256068      -69.9351403      0.253256068      -69.9351403      0.943590178      14.6021661       
85.816           0.943991868      14.517341        0.251826899      -69.9956396      0.251826899      -69.9956396      0.943991979      14.5173443       
86.312           0.944387199      14.4334027       0.250412143      -70.0551792      0.250412143      -70.0551792      0.944387311      14.4334061       
86.808           0.944776191      14.3503346       0.249011592      -70.1137721      0.249011592      -70.1137721      0.944776303      14.3503379       
87.304           0.945158968      14.2681232       0.247625041      -70.1714311      0.247625041      -70.1714311      0.94515908       14.2681266       
87.8             0.945535653      14.1867556       0.246252288      -70.2281686      0.246252288      -70.2281686      0.945535765      14.186759        
88.296           0.945906364      14.106219        0.244893136      -70.283997       0.244893136      -70.283997       0.945906477      14.1062224       
88.792           0.946271219      14.026501        0.24354739       -70.3389281      0.24354739       -70.3389281      0.946271332      14.0265044       
89.288           0.94663033       13.9475892       0.242214862      -70.3929737      0.242214862      -70.3929737      0.946630443      13.9475927       
89.784           0.94698381       13.8694717       0.240895362      -70.4461454      0.240895362      -70.4461454      0.946983923      13.8694752       
90.28            0.947331765      13.7921367       0.23958871       -70.4984544      0.23958871       -70.4984544      0.947331878      13.7921402       
90.776           0.947674301      13.7155726       0.238294723      -70.5499118      0.238294723      -70.5499118      0.947674415      13.7155761       
91.272           0.948011522      13.6397681       0.237013226      -70.6005284      0.237013226      -70.6005284      0.948011636      13.6397716       
91.768           0.948343528      13.5647121       0.235744044      -70.6503149      0.235744044      -70.6503149      0.948343642      13.5647156       
92.264           0.948670417      13.4903937       0.234487007      -70.6992816      0.234487007      -70.6992816      0.948670531      13.4903972       
92.76            0.948992286      13.4168023       0.233241948      -70.7474389      0.233241948      -70.7474389      0.9489924        13.4168058       
93.256           0.949309228      13.3439272       0.232008703      -70.7947968      0.232008703      -70.7947968      0.949309342      13.3439308       
93.752           0.949621334      13.2717583       0.230787109      -70.841365       0.230787109      -70.841365       0.949621449      13.2717619       
94.248           0.949928694      13.2002855       0.229577008      -70.8871533      0.229577008      -70.8871533      0.949928809      13.2002891       
94.744           0.950231396      13.1294989       0.228378244      -70.932171       0.228378244      -70.932171       0.950231511      13.1295025       
95.24            0.950529525      13.0593887       0.227190665      -70.9764276      0.227190665      -70.9764276      0.95052964       13.0593923       
95.736           0.950823163      12.9899454       0.226014119      -71.0199321      0.226014119      -71.0199321      0.950823279      12.989949        
96.232           0.951112394      12.9211597       0.224848459      -71.0626934      0.224848459      -71.0626934      0.95111251       12.9211634       
96.728           0.951397295      12.8530224       0.22369354       -71.1047203      0.22369354       -71.1047203      0.951397412      12.8530261       
97.224           0.951677947      12.7855245       0.22254922       -71.1460214      0.22254922       -71.1460214      0.951678063      12.7855281       
97.72            0.951954423      12.7186571       0.221415357      -71.1866052      0.221415357      -71.1866052      0.95195454       12.7186607       
98.216           0.952226799      12.6524115       0.220291814      -71.22648        0.220291814      -71.22648        0.952226916      12.6524152       
98.712           0.952495148      12.5867792       0.219178457      -71.265654       0.219178457      -71.265654       0.952495266      12.5867829       
99.208           0.952759541      12.5217519       0.218075151      -71.304135       0.218075151      -71.304135       0.952759659      12.5217556       
99.704           0.953020047      12.4573213       0.216981766      -71.341931       0.216981766      -71.341931       0.953020165      12.4573251       
100.2            0.953276735      12.3934794       0.215898174      -71.3790497      0.215898174      -71.3790497      0.953276853      12.3934831       
100.696          0.953529671      12.3302181       0.214824247      -71.4154987      0.214824247      -71.4154987      0.953529789      12.3302219       
101.192          0.95377892       12.2675298       0.213759863      -71.4512853      0.213759863      -71.4512853      0.953779039      12.2675336       
101.688          0.954024547      12.2054068       0.212704898      -71.486417       0.212704898      -71.486417       0.954024665      12.2054106       
102.184          0.954266612      12.1438415       0.211659233      -71.5209008      0.211659233      -71.5209008      0.954266731      12.1438453       
102.68           0.954505179      12.0828266       0.210622749      -71.5547438      0.210622749      -71.5547438      0.954505298      12.0828304       
103.176          0.954740305      12.0223549       0.209595331      -71.587953       0.209595331      -71.587953       0.954740424      12.0223587       
103.672          0.95497205       11.9624191       0.208576864      -71.6205352      0.208576864      -71.6205352      0.95497217       11.9624229       
104.168          0.955200471      11.9030123       0.207567236      -71.6524969      0.207567236      -71.6524969      0.955200591      11.9030162       
104.664          0.955425624      11.8441277       0.206566336      -71.6838449      0.206566336      -71.6838449      0.955425744      11.8441315       
105.16           0.955647564      11.7857584       0.205574057      -71.7145856      0.205574057      -71.7145856      0.955647684      11.7857622       
105.656          0.955866344      11.7278978       0.20459029       -71.7447253      0.20459029       -71.7447253      0.955866465      11.7279017       
106.152          0.956082018      11.6705394       0.203614932      -71.7742702      0.203614932      -71.7742702      0.956082139      11.6705433       
106.648          0.956294636      11.6136767       0.202647878      -71.8032266      0.202647878      -71.8032266      0.956294757      11.6136806       
107.144          0.956504249      11.5573035       0.201689027      -71.8316003      0.201689027      -71.8316003      0.956504371      11.5573074       
107.64           0.956710907      11.5014135       0.200738279      -71.8593975      0.200738279      -71.8593975      0.956711029      11.5014174       
108.136          0.956914658      11.4460006       0.199795536      -71.8866238      0.199795536      -71.8866238      0.956914779      11.4460046       
108.632          0.957115549      11.3910589       0.1988607        -71.913285       0.1988607        -71.913285       0.957115671      11.3910629       
109.128          0.957313627      11.3365825       0.197933676      -71.9393868      0.197933676      -71.9393868      0.957313749      11.3365864       
109.624          0.957508937      11.2825654       0.197014371      -71.9649347      0.197014371      -71.9649347      0.957509059      11.2825694       
110.12           0.957701524      11.2290021       0.196102692      -71.9899342      0.196102692      -71.9899342      0.957701646      11.2290061       
110.616          0.957891431      11.175887        0.195198549      -72.0143906      0.195198549      -72.0143906      0.957891554      11.175891        
111.112          0.958078702      11.1232144       0.194301851      -72.0383092      0.194301851      -72.0383092      0.958078825      11.1232184       
111.608          0.958263379      11.070979        0.193412512      -72.0616952      0.193412512      -72.0616952      0.958263502      11.0709831       
112.104          0.958445502      11.0191755       0.192530443      -72.0845538      0.192530443      -72.0845538      0.958445626      11.0191795       
112.6            0.958625113      10.9677985       0.191655561      -72.1068899      0.191655561      -72.1068899      0.958625236      10.9678026       
113.096          0.958802249      10.916843        0.190787781      -72.1287085      0.190787781      -72.1287085      0.958802373      10.9168471       
113.592          0.958976952      10.8663038       0.18992702       -72.1500145      0.18992702       -72.1500145      0.958977076      10.8663079       
114.088          0.959149257      10.816176        0.189073198      -72.1708127      0.189073198      -72.1708127      0.959149382      10.8161801       
114.584          0.959319204      10.7664546       0.188226233      -72.1911078      0.188226233      -72.1911078      0.959319328      10.7664587       
115.08           0.959486827      10.7171348       0.187386048      -72.2109045      0.187386048      -72.2109045      0.959486952      10.7171389       
115.576          0.959652164      10.6682117       0.186552564      -72.2302073      0.186552564      -72.2302073      0.95965229       10.6682159       
116.072          0.95981525       10.6196808       0.185725705      -72.2490207      0.185725705      -72.2490207      0.959815375      10.619685        
116.568          0.959976118      10.5715375       0.184905395      -72.2673492      0.184905395      -72.2673492      0.959976244      10.5715416       
117.064          0.960134803      10.523777        0.184091561      -72.2851972      0.184091561      -72.2851972      0.960134929      10.5237812       
117.56           0.960291339      10.4763951       0.183284129      -72.3025689      0.183284129      -72.3025689      0.960291465      10.4763993       
118.056          0.960445757      10.4293872       0.182483028      -72.3194686      0.182483028      -72.3194686      0.960445883      10.4293914       
118.552          0.960598089      10.3827491       0.181688186      -72.3359005      0.181688186      -72.3359005      0.960598216      10.3827533       
119.048          0.960748368      10.3364765       0.180899534      -72.3518686      0.180899534      -72.3518686      0.960748495      10.3364807       
119.544          0.960896624      10.2905652       0.180117003      -72.3673772      0.180117003      -72.3673772      0.960896751      10.2905694       
120.04           0.961042887      10.245011        0.179340524      -72.38243        0.179340524      -72.38243        0.961043014      10.2450152       
120.536          0.961187187      10.1998098       0.178570032      -72.3970312      0.178570032      -72.3970312      0.961187315      10.1998141       
121.032          0.961329553      10.1549578       0.177805461      -72.4111845      0.177805461      -72.4111845      0.961329681      10.1549621       
121.528          0.961470014      10.1104508       0.177046745      -72.4248938      0.177046745      -72.4248938      0.961470142      10.1104551       
122.024          0.961608597      10.0662851       0.176293821      -72.4381628      0.176293821      -72.4381628      0.961608726      10.0662894       
122.52           0.961745331      10.0224568       0.175546625      -72.4509953      0.175546625      -72.4509953      0.96174546       10.0224611       
123.016          0.961880243      9.97896202       0.174805097      -72.4633949      0.174805097      -72.4633949      0.961880372      9.97896634       
123.512          0.962013358      9.93579717       0.174069174      -72.4753653      0.174069174      -72.4753653      0.962013487      9.93580151       
124.008          0.962144704      9.89295856       0.173338797      -72.48691        0.173338797      -72.48691        0.962144834      9.8929629        
124.504          0.962274306      9.85044257       0.172613905      -72.4980325      0.172613905      -72.4980325      0.962274436      9.85044692       
125              0.962402189      9.80824564       0.171894441      -72.5087362      0.171894441      -72.5087362      0.962402319      9.80825001       
125.496          0.962528378      9.76636428       0.171180347      -72.5190247      0.171180347      -72.5190247      0.962528508      9.76636866       
125.992          0.962652897      9.72479503       0.170471565      -72.5289012      0.170471565      -72.5289012      0.962653027      9.72479942       
126.488          0.96277577       9.68353449       0.169768041      -72.5383691      0.169768041      -72.5383691      0.962775901      9.68353889       
126.984          0.962897021      9.64257931       0.169069718      -72.5474316      0.169069718      -72.5474316      0.962897152      9.64258373       
127.48           0.963016673      9.6019262        0.168376541      -72.556092       0.168376541      -72.556092       0.963016804      9.60193062       
127.976          0.963134748      9.56157188       0.167688459      -72.5643535      0.167688459      -72.5643535      0.963134879      9.56157632       
128.472          0.963251268      9.52151317       0.167005416      -72.5722192      0.167005416      -72.5722192      0.9632514        9.52151761       
128.968          0.963366256      9.48174689       0.166327361      -72.5796923      0.166327361      -72.5796923      0.963366388      9.48175135       
129.464          0.963479734      9.44226993       0.165654243      -72.5867757      0.165654243      -72.5867757      0.963479866      9.4422744        
129.96           0.963591721      9.40307922       0.164986011      -72.5934726      0.164986011      -72.5934726      0.963591853      9.4030837        
130.456          0.96370224       9.36417173       0.164322614      -72.5997858      0.164322614      -72.5997858      0.963702372      9.36417622       
130.952          0.96381131       9.32554447       0.163664003      -72.6057185      0.163664003      -72.6057185      0.963811443      9.32554897       
131.448          0.963918952      9.28719451       0.16301013       -72.6112733      0.16301013       -72.6112733      0.963919085      9.28719902       
131.944          0.964025185      9.24911894       0.162360946      -72.6164533      0.162360946      -72.6164533      0.964025318      9.24912346       
132.44           0.964130029      9.2113149        0.161716404      -72.6212613      0.161716404      -72.6212613      0.964130162      9.21131943       
132.936          0.964233503      9.17377957       0.161076456      -72.6257         0.161076456      -72.6257         0.964233636      9.17378411       
133.432          0.964335625      9.13651017       0.160441058      -72.6297723      0.160441058      -72.6297723      0.964335759      9.13651472       
133.928          0.964436415      9.09950396       0.159810164      -72.6334808      0.159810164      -72.6334808      0.964436549      9.09950852       
134.424          0.96453589       9.06275822       0.159183728      -72.6368283      0.159183728      -72.6368283      0.964536024      9.0627628        
134.92           0.964634068      9.02627031       0.158561706      -72.6398174      0.158561706      -72.6398174      0.964634202      9.02627489       
135.416          0.964730967      8.99003757       0.157944055      -72.6424508      0.157944055      -72.6424508      0.964731101      8.99004216       
135.912          0.964826604      8.95405742       0.157330731      -72.6447311      0.157330731      -72.6447311      0.964826738      8.95406202       
136.408          0.964920996      8.91832731       0.156721692      -72.6466607      0.156721692      -72.6466607      0.964921131      8.91833192       
136.904          0.96501416       8.88284469       0.156116895      -72.6482423      0.156116895      -72.6482423      0.965014295      8.88284931       
137.4            0.965106112      8.84760709       0.155516301      -72.6494784      0.155516301      -72.6494784      0.965106247      8.84761172       
137.896          0.965196868      8.81261205       0.154919866      -72.6503715      0.154919866      -72.6503715      0.965197004      8.81261669       
138.392          0.965286445      8.77785714       0.154327552      -72.6509239      0.154327552      -72.6509239      0.965286582      8.77786179       
138.888          0.965374859      8.74333997       0.153739318      -72.6511382      0.153739318      -72.6511382      0.965374995      8.74334463       
139.384          0.965462123      8.70905818       0.153155124      -72.6510167      0.153155124      -72.6510167      0.96546226       8.70906285       
139.88           0.965548255      8.67500945       0.152574933      -72.6505617      0.152574933      -72.6505617      0.965548392      8.67501413       
140.376          0.965633268      8.64119147       0.151998706      -72.6497757      0.151998706      -72.6497757      0.965633405      8.64119616       
140.872          0.965717177      8.60760199       0.151426405      -72.6486609      0.151426405      -72.6486609      0.965717315      8.60760669       
141.368          0.965799998      8.57423876       0.150857992      -72.6472197      0.150857992      -72.6472197      0.965800135      8.57424347       
141.864          0.965881743      8.54109958       0.150293431      -72.6454542      0.150293431      -72.6454542      0.965881881      8.5411043        
142.36           0.965962428      8.50818227       0.149732686      -72.6433667      0.149732686      -72.6433667      0.965962566      8.50818699       
142.856          0.966042065      8.47548467       0.14917572       -72.6409595      0.14917572       -72.6409595      0.966042204      8.47548941       
143.352          0.96612067       8.44300467       0.148622498      -72.6382347      0.148622498      -72.6382347      0.966120808      8.44300942       
143.848          0.966198254      8.41074017       0.148072985      -72.6351944      0.148072985      -72.6351944      0.966198392      8.41074493       
144.344          0.966274831      8.37868911       0.147527147      -72.6318409      0.147527147      -72.6318409      0.96627497       8.37869387       
144.84           0.966350414      8.34684944       0.146984949      -72.6281762      0.146984949      -72.6281762      0.966350553      8.34685421       
145.336          0.966425017      8.31521915       0.146446357      -72.6242024      0.146446357      -72.6242024      0.966425156      8.31522393       
145.832          0.96649865       8.28379625       0.145911339      -72.6199217      0.145911339      -72.6199217      0.96649879       8.28380104       
146.328          0.966571328      8.25257877       0.145379861      -72.615336       0.145379861      -72.615336       0.966571468      8.25258357       
146.824          0.966643062      8.22156479       0.14485189       -72.6104474      0.14485189       -72.6104474      0.966643202      8.22156959       
147.32           0.966713864      8.19075237       0.144327396      -72.6052579      0.144327396      -72.6052579      0.966714004      8.19075719       
147.816          0.966783746      8.16013964       0.143806346      -72.5997695      0.143806346      -72.5997695      0.966783886      8.16014447       
148.312          0.966852719      8.12972473       0.143288709      -72.5939841      0.143288709      -72.5939841      0.96685286       8.12972956       
148.808          0.966920796      8.09950579       0.142774454      -72.5879038      0.142774454      -72.5879038      0.966920937      8.09951063       
149.304          0.966987987      8.06948101       0.14226355       -72.5815303      0.14226355       -72.5815303      0.966988128      8.06948586       
149.8            0.967054304      8.03964858       0.141755967      -72.5748657      0.141755967      -72.5748657      0.967054445      8.03965344       
150.296          0.967119757      8.01000674       0.141251676      -72.5679119      0.141251676      -72.5679119      0.967119899      8.01001161       
150.792          0.967184358      7.98055373       0.140750647      -72.5606706      0.140750647      -72.5606706      0.9671845        7.98055861       
151.288          0.967248117      7.95128782       0.140252851      -72.5531439      0.140252851      -72.5531439      0.967248259      7.95129271       
151.784          0.967311044      7.9222073        0.139758259      -72.5453334      0.139758259      -72.5453334      0.967311187      7.9222122        
152.28           0.967373151      7.89331049       0.139266843      -72.537241       0.139266843      -72.537241       0.967373293      7.89331539       
152.776          0.967434446      7.8645957        0.138778574      -72.5288686      0.138778574      -72.5288686      0.967434589      7.86460061       
153.272          0.967494941      7.8360613        0.138293426      -72.5202178      0.138293426      -72.5202178      0.967495085      7.83606622       
153.768          0.967554645      7.80770566       0.137811371      -72.5112905      0.137811371      -72.5112905      0.967554789      7.80771058       
154.264          0.967613569      7.77952716       0.137332381      -72.5020885      0.137332381      -72.5020885      0.967613712      7.7795321        
154.76           0.96767172       7.75152423       0.13685643       -72.4926134      0.13685643       -72.4926134      0.967671864      7.75152917       
155.256          0.96772911       7.72369529       0.136383491      -72.482867       0.136383491      -72.482867       0.967729254      7.72370024       
155.752          0.967785747      7.69603878       0.135913539      -72.472851       0.135913539      -72.472851       0.967785891      7.69604374       
156.248          0.967841641      7.66855319       0.135446547      -72.4625671      0.135446547      -72.4625671      0.967841785      7.66855815       
156.744          0.9678968        7.64123699       0.13498249       -72.4520169      0.13498249       -72.4520169      0.967896945      7.64124196       
157.24           0.967951235      7.61408868       0.134521344      -72.4412021      0.134521344      -72.4412021      0.96795138       7.61409366       
157.736          0.968004952      7.5871068        0.134063081      -72.4301244      0.134063081      -72.4301244      0.968005098      7.58711179       
158.232          0.968057962      7.56028987       0.133607679      -72.4187854      0.133607679      -72.4187854      0.968058108      7.56029487       
158.728          0.968110273      7.53363646       0.133155113      -72.4071867      0.133155113      -72.4071867      0.968110419      7.53364147       
159.224          0.968161894      7.50714514       0.132705359      -72.3953298      0.132705359      -72.3953298      0.96816204       7.50715015       
159.72           0.968212832      7.48081449       0.132258393      -72.3832165      0.132258393      -72.3832165      0.968212978      7.48081951       
160.216          0.968263096      7.45464313       0.131814191      -72.3708482      0.131814191      -72.3708482      0.968263242      7.45464816       
160.712          0.968312694      7.42862968       0.13137273       -72.3582266      0.13137273       -72.3582266      0.96831284       7.42863471       
161.208          0.968361634      7.40277277       0.130933988      -72.3453532      0.130933988      -72.3453532      0.968361781      7.40277781       
161.704          0.968409924      7.37707106       0.130497941      -72.3322294      0.130497941      -72.3322294      0.968410071      7.37707611       
162.2            0.968457572      7.35152322       0.130064567      -72.318857       0.130064567      -72.318857       0.968457719      7.35152828       
162.696          0.968504585      7.32612794       0.129633843      -72.3052372      0.129633843      -72.3052372      0.968504733      7.326133         
163.192          0.968550971      7.3008839        0.129205749      -72.2913718      0.129205749      -72.2913718      0.968551119      7.30088898       
163.688          0.968596738      7.27578984       0.128780261      -72.277262       0.128780261      -72.277262       0.968596886      7.27579492       
164.184          0.968641893      7.25084448       0.128357359      -72.2629095      0.128357359      -72.2629095      0.968642041      7.25084956       
164.68           0.968686443      7.22604656       0.127937021      -72.2483157      0.127937021      -72.2483157      0.968686592      7.22605165       
165.176          0.968730395      7.20139484       0.127519226      -72.233482       0.127519226      -72.233482       0.968730544      7.20139994       
165.672          0.968773757      7.17688809       0.127103953      -72.2184099      0.127103953      -72.2184099      0.968773906      7.1768932        
166.168          0.968816535      7.1525251        0.126691183      -72.2031008      0.126691183      -72.2031008      0.968816685      7.15253022       
166.664          0.968858737      7.12830468       0.126280894      -72.1875561      0.126280894      -72.1875561      0.968858887      7.1283098        
167.16           0.968900369      7.10422562       0.125873066      -72.1717772      0.125873066      -72.1717772      0.968900519      7.10423074       
167.656          0.968941437      7.08028676       0.12546768       -72.1557656      0.12546768       -72.1557656      0.968941588      7.08029189       
168.152          0.96898195       7.05648693       0.125064716      -72.1395226      0.125064716      -72.1395226      0.9689821        7.05649207       
168.648          0.969021912      7.032825         0.124664154      -72.1230497      0.124664154      -72.1230497      0.969022062      7.03283014       
169.144          0.96906133       7.00929981       0.124265975      -72.1063481      0.124265975      -72.1063481      0.969061481      7.00930497       
169.64           0.969100212      6.98591026       0.12387016       -72.0894192      0.12387016       -72.0894192      0.969100363      6.98591542       
170.136          0.969138562      6.96265523       0.12347669       -72.0722644      0.12347669       -72.0722644      0.969138714      6.96266039       
170.632          0.969176388      6.93953362       0.123085547      -72.054885       0.123085547      -72.054885       0.96917654       6.93953879       
171.128          0.969213696      6.91654434       0.122696712      -72.0372824      0.122696712      -72.0372824      0.969213847      6.91654952       
171.624          0.96925049       6.89368632       0.122310166      -72.0194578      0.122310166      -72.0194578      0.969250642      6.89369151       
172.12           0.969286779      6.87095851       0.121925893      -72.0014127      0.121925893      -72.0014127      0.969286931      6.8709637        
172.616          0.969322566      6.84835983       0.121543873      -71.9831482      0.121543873      -71.9831482      0.969322719      6.84836503       
173.112          0.969357859      6.82588927       0.121164089      -71.9646656      0.121164089      -71.9646656      0.969358012      6.82589447       
173.608          0.969392663      6.80354578       0.120786524      -71.9459664      0.120786524      -71.9459664      0.969392816      6.80355099       
174.104          0.969426983      6.78132835       0.120411161      -71.9270516      0.120411161      -71.9270516      0.969427136      6.78133357       
174.6            0.969460825      6.75923598       0.120037982      -71.9079227      0.120037982      -71.9079227      0.969460978      6.7592412        
175.096          0.969494195      6.73726765       0.11966697       -71.8885808      0.11966697       -71.8885808      0.969494349      6.73727288       
175.592          0.969527098      6.7154224        0.119298109      -71.8690273      0.119298109      -71.8690273      0.969527252      6.71542764       
176.088          0.969559539      6.69369925       0.118931381      -71.8492633      0.118931381      -71.8492633      0.969559694      6.69370449       
176.584          0.969591525      6.67209723       0.118566771      -71.8292901      0.118566771      -71.8292901      0.969591679      6.67210247       
177.08           0.969623059      6.65061538       0.118204263      -71.8091089      0.118204263      -71.8091089      0.969623213      6.65062063       
177.576          0.969654147      6.62925276       0.117843839      -71.7887209      0.117843839      -71.7887209      0.969654302      6.62925802       
178.072          0.969684795      6.60800844       0.117485485      -71.7681274      0.117485485      -71.7681274      0.96968495       6.6080137        
178.568          0.969715007      6.58688148       0.117129184      -71.7473296      0.117129184      -71.7473296      0.969715162      6.58688676       
179.064          0.969744788      6.56587099       0.116774921      -71.7263285      0.116774921      -71.7263285      0.969744944      6.56587626       
179.56           0.969774144      6.54497604       0.116422681      -71.7051256      0.116422681      -71.7051256      0.9697743        6.54498132       
180.056          0.969803079      6.52419575       0.116072447      -71.6837218      0.116072447      -71.6837218      0.969803235      6.52420104       
180.552          0.969831597      6.50352922       0.115724206      -71.6621184      0.115724206      -71.6621184      0.969831754      6.50353451       
181.048          0.969859705      6.48297558       0.115377941      -71.6403166      0.115377941      -71.6403166      0.969859861      6.48298088       
181.544          0.969887405      6.46253395       0.115033639      -71.6183175      0.115033639      -71.6183175      0.969887562      6.46253926       
182.04           0.969914704      6.44220349       0.114691284      -71.5961223      0.114691284      -71.5961223      0.969914861      6.4422088        
182.536          0.969941605      6.42198333       0.114350861      -71.5737321      0.114350861      -71.5737321      0.969941762      6.42198865       
183.032          0.969968113      6.40187264       0.114012358      -71.5511481      0.114012358      -71.5511481      0.96996827       6.40187796       
183.528          0.969994232      6.38187057       0.113675758      -71.5283714      0.113675758      -71.5283714      0.96999439       6.3818759        
184.024          0.970019968      6.36197631       0.113341049      -71.505403       0.113341049      -71.505403       0.970020126      6.36198164       
184.52           0.970045323      6.34218904       0.113008216      -71.4822443      0.113008216      -71.4822443      0.970045481      6.34219437       
185.016          0.970070303      6.32250794       0.112677245      -71.4588962      0.112677245      -71.4588962      0.970070462      6.32251328       
185.512          0.970094912      6.30293222       0.112348123      -71.4353598      0.112348123      -71.4353598      0.970095071      6.30293756       
186.008          0.970119154      6.28346108       0.112020836      -71.4116363      0.112020836      -71.4116363      0.970119313      6.28346643       
186.504          0.970143033      6.26409374       0.111695371      -71.3877268      0.111695371      -71.3877268      0.970143192      6.26409909       
187              0.970166553      6.24482942       0.111371714      -71.3636324      0.111371714      -71.3636324      0.970166712      6.24483478       
187.496          0.970189719      6.22566735       0.111049852      -71.339354       0.111049852      -71.339354       0.970189878      6.22567272       
187.992          0.970212533      6.20660677       0.110729772      -71.3148929      0.110729772      -71.3148929      0.970212693      6.20661214       
188.488          0.970235001      6.18764692       0.110411461      -71.2902501      0.110411461      -71.2902501      0.970235161      6.1876523        
188.984          0.970257125      6.16878706       0.110094907      -71.2654267      0.110094907      -71.2654267      0.970257286      6.16879245       
189.48           0.970278911      6.15002645       0.109780096      -71.2404236      0.109780096      -71.2404236      0.970279071      6.15003184       
189.976          0.970300361      6.13136436       0.109467017      -71.2152421      0.109467017      -71.2152421      0.970300522      6.13136975       
190.472          0.97032148       6.11280005       0.109155656      -71.1898831      0.109155656      -71.1898831      0.970321641      6.11280545       
190.968          0.970342271      6.09433282       0.108846001      -71.1643476      0.108846001      -71.1643476      0.970342432      6.09433822       
191.464          0.970362738      6.07596195       0.108538041      -71.1386367      0.108538041      -71.1386367      0.970362899      6.07596736       
191.96           0.970382884      6.05768674       0.108231763      -71.1127515      0.108231763      -71.1127515      0.970383045      6.05769215       
192.456          0.970402713      6.03950648       0.107927155      -71.086693       0.107927155      -71.086693       0.970402875      6.0395119        
192.952          0.970422229      6.02142049       0.107624205      -71.0604622      0.107624205      -71.0604622      0.970422391      6.02142592       
193.448          0.970441435      6.00342809       0.107322902      -71.03406        0.107322902      -71.03406        0.970441597      6.00343352       
193.944          0.970460335      5.9855286        0.107023234      -71.0074877      0.107023234      -71.0074877      0.970460497      5.98553403       
194.44           0.970478931      5.96772134       0.106725189      -70.980746       0.106725189      -70.980746       0.970479094      5.96772677       
194.936          0.970497228      5.95000565       0.106428756      -70.9538361      0.106428756      -70.9538361      0.970497391      5.95001109       
195.432          0.970515228      5.93238087       0.106133924      -70.9267589      0.106133924      -70.9267589      0.970515391      5.93238632       
195.928          0.970532936      5.91484636       0.105840681      -70.8995155      0.105840681      -70.8995155      0.970533099      5.91485181       
196.424          0.970550354      5.89740146       0.105549017      -70.8721068      0.105549017      -70.8721068      0.970550517      5.89740691       
196.92           0.970567485      5.88004553       0.105258919      -70.8445339      0.105258919      -70.8445339      0.970567649      5.88005099       
197.416          0.970584333      5.86277795       0.104970379      -70.8167976      0.104970379      -70.8167976      0.970584497      5.86278341       
197.912          0.970600901      5.84559808       0.104683384      -70.7888989      0.104683384      -70.7888989      0.970601065      5.84560354       
198.408          0.970617191      5.8285053        0.104397923      -70.760839       0.104397923      -70.760839       0.970617355      5.82851077       
198.904          0.970633208      5.811499         0.104113987      -70.7326186      0.104113987      -70.7326186      0.970633372      5.81150447       
199.4            0.970648953      5.79457856       0.103831565      -70.7042388      0.103831565      -70.7042388      0.970649118      5.79458404       
199.896          0.970664431      5.77774338       0.103550646      -70.6757005      0.103550646      -70.6757005      0.970664596      5.77774886       
200              0.970667643      5.77422418       0.103491934      -70.6696967      0.103491934      -70.6696967      0.970667808      5.77422967       
