! Coilcraft 0805LS-471 Chip Inductor				
! 18 September 2002			
# MHZ S MA R 50
!Freq             MagS11           AngS11           MagS21           AngS21           MagS12           AngS12           MagS22           AngS22
1                0.0292989848     81.5932295       0.9961381        -1.66734418      0.9961381        -1.66734418      0.0292989876     81.5932318       
1.596            0.0465431209     82.6779653       0.995139432      -2.65885182      0.995139432      -2.65885182      0.0465431255     82.6779668       
2.192            0.0637599783     82.5979281       0.993799002      -3.64780267      0.993799002      -3.64780267      0.0637599846     82.5979293       
2.788            0.0809129463     82.1028954       0.992125306      -4.63350137      0.992125306      -4.63350137      0.0809129543     82.1028963       
3.384            0.0979797452     81.4161424       0.99012699       -5.61527854      0.99012699       -5.61527854      0.097979755      81.4161432       
3.98             0.114942186      80.627509        0.987812847      -6.59248959      0.987812847      -6.59248959      0.114942198      80.6275097       
4.576            0.131783939      79.7801825       0.985191933      -7.56451479      0.985191933      -7.56451479      0.131783952      79.7801831       
5.172            0.148489866      78.8975755       0.982273636      -8.53075959      0.982273636      -8.53075959      0.148489881      78.897576        
5.768            0.165045792      77.9935493       0.979067707      -9.49065542      0.979067707      -9.49065542      0.165045808      77.9935498       
6.364            0.181438417      77.0768906       0.975584264      -10.4436603      0.975584264      -10.4436603      0.181438435      77.076891        
6.96             0.197655292      76.1534837       0.971833775      -11.3892598      0.971833775      -11.3892598      0.197655311      76.1534841       
7.556            0.213684811      75.2274528       0.967827024      -12.3269674      0.967827024      -12.3269674      0.213684832      75.2274532       
8.152            0.229516212      74.3018005       0.963575072      -13.2563253      0.963575072      -13.2563253      0.229516234      74.3018009       
8.748            0.24513958       73.3787843       0.959089212      -14.1769044      0.959089212      -14.1769044      0.245139604      73.3787848       
9.344            0.260545849      72.4601481       0.954380918      -15.0883051      0.954380918      -15.0883051      0.260545875      72.4601485       
9.94             0.275726796      71.5472696       0.949461797      -15.9901572      0.949461797      -15.9901572      0.275726824      71.54727         
10.536           0.290675038      70.6412575       0.944343533      -16.8821197      0.944343533      -16.8821197      0.290675067      70.6412579       
11.132           0.305384016      69.7430175       0.93903784       -17.7638807      0.93903784       -17.7638807      0.305384047      69.7430179       
11.728           0.319847985      68.8532978       0.933556413      -18.6351571      0.933556413      -18.6351571      0.319848017      68.8532982       
12.324           0.334061989      67.9727217       0.927910881      -19.4956943      0.927910881      -19.4956943      0.334062023      67.9727221       
12.92            0.348021843      67.1018109       0.92211276       -20.3452653      0.92211276       -20.3452653      0.348021878      67.1018113       
13.516           0.361724104      66.2410034       0.916173417      -21.1836705      0.916173417      -21.1836705      0.36172414       66.2410038       
14.112           0.37516604       65.3906665       0.910104028      -22.0107362      0.910104028      -22.0107362      0.375166077      65.3906669       
14.708           0.388345603      64.5511069       0.903915547      -22.8263145      0.903915547      -22.8263145      0.388345641      64.5511073       
15.304           0.401261393      63.7225792       0.897618674      -23.6302819      0.897618674      -23.6302819      0.401261433      63.7225796       
15.9             0.413912624      62.9052921       0.891223827      -24.4225385      0.891223827      -24.4225385      0.413912666      62.9052925       
16.496           0.426299089      62.0994135       0.884741122      -25.2030069      0.884741122      -25.2030069      0.426299131      62.0994139       
17.092           0.438421119      61.3050753       0.87818035       -25.9716311      0.87818035       -25.9716311      0.438421163      61.3050757       
17.688           0.450279554      60.5223772       0.87155096       -26.7283754      0.87155096       -26.7283754      0.450279599      60.5223776       
18.284           0.4618757        59.7513895       0.864862051      -27.4732233      0.864862051      -27.4732233      0.461875746      59.7513899       
18.88            0.473211295      58.9921561       0.858122357      -28.2061765      0.858122357      -28.2061765      0.473211342      58.9921565       
19.476           0.484288473      58.2446973       0.851340239      -28.9272536      0.851340239      -28.9272536      0.484288522      58.2446977       
20.072           0.49510973       57.5090116       0.844523687      -29.636489       0.844523687      -29.636489       0.495109779      57.5090121       
20.668           0.505677886      56.785078        0.83768031       -30.3339317      0.83768031       -30.3339317      0.505677937      56.7850785       
21.264           0.51599606       56.0728577       0.830817341      -31.0196447      0.830817341      -31.0196447      0.515996112      56.0728582       
21.86            0.526067631      55.3722957       0.823941638      -31.6937033      0.823941638      -31.6937033      0.526067684      55.3722962       
22.456           0.535896211      54.6833227       0.817059689      -32.3561945      0.817059689      -32.3561945      0.535896264      54.6833231       
23.052           0.545485616      54.0058559       0.810177613      -33.007216       0.810177613      -33.007216       0.54548567       54.0058564       
23.648           0.554839841      53.339801        0.803301173      -33.6468749      0.803301173      -33.6468749      0.554839896      53.3398015       
24.244           0.56396303       52.6850531       0.796435781      -34.2752873      0.796435781      -34.2752873      0.563963087      52.6850536       
24.84            0.572859459      52.0414976       0.789586506      -34.892577       0.789586506      -34.892577       0.572859516      52.041498        
25.436           0.581533505      51.4090116       0.782758087      -35.4988749      0.782758087      -35.4988749      0.581533563      51.4090121       
26.032           0.589989632      50.7874648       0.77595494       -36.094318       0.77595494       -36.094318       0.589989691      50.7874653       
26.628           0.59823237       50.1767203       0.769181172      -36.6790489      0.769181172      -36.6790489      0.59823243       50.1767208       
27.224           0.606266296      49.5766356       0.762440593      -37.2532151      0.762440593      -37.2532151      0.606266356      49.5766361       
27.82            0.614096018      48.9870632       0.755736724      -37.8169681      0.755736724      -37.8169681      0.61409608       48.9870637       
28.416           0.621726162      48.4078513       0.749072814      -38.3704629      0.749072814      -38.3704629      0.621726225      48.4078518       
29.012           0.629161356      47.8388448       0.742451846      -38.9138575      0.742451846      -38.9138575      0.629161419      47.8388453       
29.608           0.636406219      47.2798854       0.735876558      -39.4473123      0.735876558      -39.4473123      0.636406282      47.279886        
30.204           0.643465348      46.7308128       0.729349444      -39.9709896      0.729349444      -39.9709896      0.643465412      46.7308133       
30.8             0.650343312      46.1914645       0.722872775      -40.485053       0.722872775      -40.485053       0.650343377      46.191465        
31.396           0.657044639      45.6616768       0.716448607      -40.9896673      0.716448607      -40.9896673      0.657044705      45.6616773       
31.992           0.66357381       45.1412851       0.710078792      -41.4849979      0.710078792      -41.4849979      0.663573876      45.1412857       
32.588           0.669935251      44.6301243       0.70376499       -41.9712102      0.70376499       -41.9712102      0.669935318      44.6301249       
33.184           0.676133328      44.1280291       0.697508682      -42.4484698      0.697508682      -42.4484698      0.676133396      44.1280297       
33.78            0.682172342      43.6348345       0.691311174      -42.9169418      0.691311174      -42.9169418      0.68217241       43.634835        
34.376           0.688056522      43.1503756       0.685173615      -43.3767907      0.685173615      -43.3767907      0.688056591      43.1503762       
34.972           0.693790022      42.6744888       0.679097003      -43.8281799      0.679097003      -43.8281799      0.693790092      42.6744894       
35.568           0.699376922      42.2070111       0.673082194      -44.2712719      0.673082194      -44.2712719      0.699376992      42.2070117       
36.164           0.704821217      41.7477808       0.667129912      -44.7062278      0.667129912      -44.7062278      0.704821288      41.7477815       
36.76            0.710126822      41.2966378       0.661240757      -45.133207       0.661240757      -45.133207       0.710126894      41.2966385       
37.356           0.715297568      40.8534234       0.655415215      -45.5523674      0.655415215      -45.5523674      0.71529764       40.853424        
37.952           0.720337199      40.4179806       0.649653663      -45.9638651      0.649653663      -45.9638651      0.720337271      40.4179813       
38.548           0.725249373      39.9901545       0.643956381      -46.3678541      0.643956381      -46.3678541      0.725249446      39.9901551       
39.144           0.730037662      39.569792        0.638323553      -46.7644865      0.638323553      -46.7644865      0.730037736      39.5697927       
39.74            0.73470555       39.1567422       0.632755278      -47.1539121      0.632755278      -47.1539121      0.734705624      39.1567429       
40.336           0.739256433      38.7508565       0.627251577      -47.5362785      0.627251577      -47.5362785      0.739256508      38.7508572       
40.932           0.743693623      38.3519883       0.621812396      -47.911731       0.621812396      -47.911731       0.743693698      38.351989        
41.528           0.748020342      37.9599936       0.616437613      -48.2804127      0.616437613      -48.2804127      0.748020417      37.9599943       
42.124           0.75223973       37.5747306       0.611127045      -48.642464       0.611127045      -48.642464       0.752239806      37.5747313       
42.72            0.756354841      37.19606         0.605880451      -48.9980229      0.605880451      -48.9980229      0.756354917      37.1960607       
43.316           0.760368645      36.823845        0.600697536      -49.3472252      0.600697536      -49.3472252      0.760368721      36.8238458       
43.912           0.76428403       36.4579514       0.595577958      -49.690204       0.595577958      -49.690204       0.764284107      36.4579521       
44.508           0.768103804      36.0982471       0.590521333      -50.0270897      0.590521333      -50.0270897      0.768103881      36.0982478       
45.104           0.771830694      35.7446029       0.585527235      -50.3580106      0.585527235      -50.3580106      0.771830771      35.7446037       
45.7             0.77546735       35.396892        0.580595201      -50.6830921      0.580595201      -50.6830921      0.775467428      35.3968928       
46.296           0.779016345      35.0549901       0.575724738      -51.0024573      0.575724738      -51.0024573      0.779016423      35.0549909       
46.892           0.782480177      34.7187754       0.570915321      -51.3162267      0.570915321      -51.3162267      0.782480256      34.7187761       
47.488           0.785861272      34.3881285       0.5661664        -51.6245185      0.5661664        -51.6245185      0.785861351      34.3881293       
48.084           0.789161982      34.0629327       0.561477402      -51.9274481      0.561477402      -51.9274481      0.789162062      34.0629335       
48.68            0.792384591      33.7430735       0.556847731      -52.2251286      0.556847731      -52.2251286      0.792384671      33.7430743       
49.276           0.795531315      33.4284391       0.552276774      -52.5176709      0.552276774      -52.5176709      0.795531395      33.4284399       
49.872           0.798604301      33.1189198       0.547763901      -52.8051832      0.547763901      -52.8051832      0.798604382      33.1189207       
50.468           0.801605635      32.8144086       0.543308468      -53.0877714      0.543308468      -53.0877714      0.801605716      32.8144094       
51.064           0.804537337      32.5148006       0.53890982       -53.3655391      0.53890982       -53.3655391      0.804537418      32.5148014       
51.66            0.807401366      32.2199933       0.53456729       -53.6385877      0.53456729       -53.6385877      0.807401448      32.2199941       
52.256           0.810199624      31.9298865       0.530280204      -53.907016       0.530280204      -53.907016       0.810199706      31.9298873       
52.852           0.812933952      31.6443822       0.526047879      -54.1709211      0.526047879      -54.1709211      0.812934034      31.644383        
53.448           0.815606135      31.3633846       0.521869627      -54.4303973      0.521869627      -54.4303973      0.815606217      31.3633854       
54.044           0.818217906      31.0868001       0.517744758      -54.6855373      0.517744758      -54.6855373      0.818217989      31.086801        
54.64            0.820770942      30.8145372       0.513672576      -54.9364313      0.513672576      -54.9364313      0.820771025      30.8145381       
55.236           0.82326687       30.5465066       0.509652385      -55.1831675      0.509652385      -55.1831675      0.823266953      30.5465075       
55.832           0.825707267      30.2826209       0.505683487      -55.4258322      0.505683487      -55.4258322      0.82570735       30.2826217       
56.428           0.82809366       30.0227947       0.501765184      -55.6645097      0.501765184      -55.6645097      0.828093744      30.0227956       
57.024           0.830427532      29.7669447       0.49789678       -55.8992821      0.49789678       -55.8992821      0.830427616      29.7669456       
57.62            0.832710317      29.5149894       0.49407758       -56.1302298      0.49407758       -56.1302298      0.832710401      29.5149903       
58.216           0.834943408      29.2668493       0.490306893      -56.3574314      0.490306893      -56.3574314      0.834943493      29.2668502       
58.812           0.837128154      29.0224467       0.486584029      -56.5809633      0.486584029      -56.5809633      0.837128239      29.0224476       
59.408           0.839265862      28.7817057       0.482908303      -56.8009006      0.482908303      -56.8009006      0.839265947      28.7817066       
60.004           0.841357799      28.5445521       0.479279034      -57.0173163      0.479279034      -57.0173163      0.841357884      28.5445531       
60.6             0.843405194      28.3109136       0.475695546      -57.2302817      0.475695546      -57.2302817      0.84340528       28.3109145       
61.196           0.845409239      28.0807194       0.47215717       -57.4398666      0.47215717       -57.4398666      0.845409324      28.0807203       
61.792           0.847371087      27.8539004       0.468663239      -57.646139       0.468663239      -57.646139       0.847371173      27.8539014       
62.388           0.849291859      27.6303893       0.465213095      -57.8491654      0.465213095      -57.8491654      0.849291945      27.6303903       
62.984           0.85117264       27.4101201       0.461806086      -58.0490107      0.461806086      -58.0490107      0.851172726      27.4101211       
63.58            0.853014481      27.1930285       0.458441566      -58.2457382      0.458441566      -58.2457382      0.853014568      27.1930295       
64.176           0.854818405      26.9790516       0.455118897      -58.4394099      0.455118897      -58.4394099      0.854818491      26.9790526       
64.772           0.856585399      26.7681282       0.451837446      -58.6300862      0.451837446      -58.6300862      0.856585486      26.7681292       
65.368           0.858316424      26.5601981       0.448596591      -58.8178262      0.448596591      -58.8178262      0.858316511      26.5601991       
65.964           0.860012411      26.355203        0.445395713      -59.0026873      0.445395713      -59.0026873      0.860012498      26.355204        
66.56            0.861674262      26.1530855       0.442234205      -59.184726       0.442234205      -59.184726       0.86167435       26.1530865       
67.156           0.863302854      25.9537899       0.439111465      -59.3639972      0.439111465      -59.3639972      0.863302941      25.9537909       
67.752           0.864899034      25.7572615       0.436026901      -59.5405545      0.436026901      -59.5405545      0.864899122      25.7572626       
68.348           0.866463629      25.5634472       0.432979926      -59.7144505      0.432979926      -59.7144505      0.866463717      25.5634482       
68.944           0.867997437      25.3722947       0.429969965      -59.8857362      0.429969965      -59.8857362      0.867997525      25.3722958       
69.54            0.869501235      25.1837533       0.426996447      -60.0544618      0.426996447      -60.0544618      0.869501323      25.1837544       
70.136           0.870975775      24.9977732       0.424058813      -60.2206761      0.424058813      -60.2206761      0.870975863      24.9977743       
70.732           0.872421788      24.814306        0.421156509      -60.3844268      0.421156509      -60.3844268      0.872421876      24.8143071       
71.328           0.873839983      24.6333041       0.418288991      -60.5457605      0.418288991      -60.5457605      0.873840072      24.6333052       
71.924           0.875231049      24.4547212       0.415455723      -60.7047228      0.415455723      -60.7047228      0.875231138      24.4547223       
72.52            0.876595655      24.2785121       0.412656177      -60.8613581      0.412656177      -60.8613581      0.876595744      24.2785132       
73.116           0.877934449      24.1046324       0.409889832      -61.01571        0.409889832      -61.01571        0.877934538      24.1046336       
73.712           0.879248061      23.933039        0.407156176      -61.1678209      0.407156176      -61.1678209      0.879248151      23.9330402       
74.308           0.880537104      23.7636895       0.404454705      -61.3177323      0.404454705      -61.3177323      0.880537194      23.7636907       
74.904           0.881802171      23.5965427       0.401784924      -61.4654848      0.401784924      -61.4654848      0.881802261      23.5965439       
75.5             0.883043839      23.4315582       0.399146344      -61.611118       0.399146344      -61.611118       0.883043929      23.4315593       
76.096           0.88426267       23.2686964       0.396538486      -61.7546706      0.396538486      -61.7546706      0.88426276       23.2686976       
76.692           0.885459208      23.1079188       0.393960876      -61.8961805      0.393960876      -61.8961805      0.885459298      23.10792         
77.288           0.886633981      22.9491877       0.391413049      -62.0356848      0.391413049      -62.0356848      0.886634072      22.9491889       
77.884           0.887787505      22.7924663       0.38889455       -62.1732194      0.38889455       -62.1732194      0.887787596      22.7924675       
78.48            0.888920279      22.6377184       0.386404928      -62.30882        0.386404928      -62.30882        0.888920369      22.6377196       
79.076           0.890032788      22.4849087       0.383943741      -62.4425209      0.383943741      -62.4425209      0.890032878      22.48491         
79.672           0.891125504      22.3340029       0.381510555      -62.5743559      0.381510555      -62.5743559      0.891125595      22.3340042       
80.268           0.892198887      22.1849672       0.379104942      -62.7043582      0.379104942      -62.7043582      0.892198978      22.1849685       
80.864           0.893253382      22.0377687       0.376726482      -62.8325601      0.376726482      -62.8325601      0.893253473      22.0377699       
81.46            0.894289423      21.8923749       0.374374761      -62.958993       0.374374761      -62.958993       0.894289514      21.8923762       
82.056           0.895307431      21.7487545       0.372049375      -63.083688       0.372049375      -63.083688       0.895307523      21.7487558       
82.652           0.896307818      21.6068766       0.369749923      -63.2066752      0.369749923      -63.2066752      0.896307909      21.6068779       
83.248           0.897290981      21.4667109       0.367476014      -63.3279842      0.367476014      -63.3279842      0.897291073      21.4667122       
83.844           0.898257309      21.328228        0.365227261      -63.4476439      0.365227261      -63.4476439      0.898257401      21.3282293       
84.44            0.89920718       21.1913989       0.363003286      -63.5656825      0.363003286      -63.5656825      0.899207272      21.1914002       
85.036           0.90014096       21.0561953       0.360803716      -63.6821278      0.360803716      -63.6821278      0.900141052      21.0561966       
85.632           0.901059007      20.9225896       0.358628186      -63.7970068      0.358628186      -63.7970068      0.901059099      20.922591        
86.228           0.901961669      20.7905547       0.356476334      -63.910346       0.356476334      -63.910346       0.901961761      20.7905561       
86.824           0.902849284      20.6600641       0.354347809      -64.0221713      0.354347809      -64.0221713      0.902849377      20.6600655       
87.42            0.903722182      20.5310919       0.352242261      -64.1325081      0.352242261      -64.1325081      0.903722274      20.5310932       
88.016           0.904580683      20.4036125       0.35015935       -64.2413811      0.35015935       -64.2413811      0.904580775      20.4036139       
88.612           0.905425099      20.2776013       0.348098741      -64.3488147      0.348098741      -64.3488147      0.905425192      20.2776026       
89.208           0.906255735      20.1530337       0.346060103      -64.4548326      0.346060103      -64.4548326      0.906255828      20.1530351       
89.804           0.907072887      20.0298861       0.344043113      -64.5594582      0.344043113      -64.5594582      0.90707298       20.0298875       
90.4             0.907876843      19.9081351       0.342047452      -64.6627141      0.342047452      -64.6627141      0.907876936      19.9081364       
90.996           0.908667884      19.7877577       0.340072807      -64.7646227      0.340072807      -64.7646227      0.908667977      19.7877591       
91.592           0.909446282      19.6687317       0.338118871      -64.8652058      0.338118871      -64.8652058      0.909446376      19.6687331       
92.188           0.910212306      19.5510351       0.336185342      -64.9644849      0.336185342      -64.9644849      0.9102124        19.5510365       
92.784           0.910966214      19.4346465       0.334271923      -65.0624807      0.334271923      -65.0624807      0.910966308      19.4346479       
93.38            0.911708259      19.3195448       0.332378322      -65.1592139      0.332378322      -65.1592139      0.911708353      19.3195462       
93.976           0.912438689      19.2057094       0.330504252      -65.2547046      0.330504252      -65.2547046      0.912438783      19.2057108       
94.572           0.913157742      19.0931201       0.328649432      -65.3489723      0.328649432      -65.3489723      0.913157836      19.0931215       
95.168           0.913865654      18.9817572       0.326813585      -65.4420364      0.326813585      -65.4420364      0.913865748      18.9817586       
95.764           0.914562653      18.8716013       0.324996439      -65.5339157      0.324996439      -65.5339157      0.914562747      18.8716027       
96.36            0.915248961      18.7626334       0.323197726      -65.6246287      0.323197726      -65.6246287      0.915249055      18.7626348       
96.956           0.915924796      18.6548348       0.321417184      -65.7141935      0.321417184      -65.7141935      0.91592489       18.6548363       
97.552           0.916590368      18.5481875       0.319654555      -65.8026279      0.319654555      -65.8026279      0.916590463      18.548189        
98.148           0.917245885      18.4426734       0.317909584      -65.8899492      0.317909584      -65.8899492      0.917245979      18.4426749       
98.744           0.917891547      18.3382751       0.316182022      -65.9761745      0.316182022      -65.9761745      0.917891642      18.3382766       
99.34            0.918527552      18.2349754       0.314471625      -66.0613206      0.314471625      -66.0613206      0.918527647      18.2349769       
99.936           0.91915409       18.1327574       0.312778151      -66.1454036      0.312778151      -66.1454036      0.919154185      18.1327589       
100.532          0.919771349      18.0316047       0.311101363      -66.2284398      0.311101363      -66.2284398      0.919771444      18.0316062       
101.128          0.92037951       17.931501        0.309441029      -66.3104449      0.309441029      -66.3104449      0.920379605      17.9315026       
101.724          0.920978752      17.8324306       0.30779692       -66.3914341      0.30779692       -66.3914341      0.920978847      17.8324321       
102.32           0.921569249      17.7343777       0.306168811      -66.4714227      0.306168811      -66.4714227      0.921569344      17.7343793       
102.916          0.922151169      17.6373273       0.304556481      -66.5504255      0.304556481      -66.5504255      0.922151265      17.6373288       
103.512          0.922724679      17.5412642       0.302959712      -66.628457       0.302959712      -66.628457       0.922724775      17.5412657       
104.108          0.92328994       17.4461738       0.301378292      -66.7055314      0.301378292      -66.7055314      0.923290035      17.4461754       
104.704          0.923847109      17.3520417       0.299812009      -66.7816628      0.299812009      -66.7816628      0.923847205      17.3520433       
105.3            0.924396341      17.2588538       0.298260658      -66.8568647      0.298260658      -66.8568647      0.924396437      17.2588554       
105.896          0.924937785      17.1665962       0.296724036      -66.9311507      0.296724036      -66.9311507      0.924937881      17.1665978       
106.492          0.92547159       17.0752553       0.295201943      -67.004534       0.295201943      -67.004534       0.925471686      17.0752569       
107.088          0.925997897      16.9848177       0.293694182      -67.0770274      0.293694182      -67.0770274      0.925997993      16.9848193       
107.684          0.926516848      16.8952704       0.292200561      -67.1486436      0.292200561      -67.1486436      0.926516944      16.895272        
108.28           0.927028578      16.8066005       0.29072089       -67.2193952      0.29072089       -67.2193952      0.927028675      16.8066022       
108.876          0.927533223      16.7187954       0.289254983      -67.2892942      0.289254983      -67.2892942      0.927533319      16.7187971       
109.472          0.928030912      16.6318427       0.287802656      -67.3583527      0.287802656      -67.3583527      0.928031008      16.6318444       
110.068          0.928521773      16.5457303       0.286363729      -67.4265824      0.286363729      -67.4265824      0.928521869      16.5457319       
110.664          0.92900593       16.4604461       0.284938024      -67.4939949      0.284938024      -67.4939949      0.929006027      16.4604478       
111.26           0.929483506      16.3759786       0.283525367      -67.5606015      0.283525367      -67.5606015      0.929483603      16.3759803       
111.856          0.929954621      16.2923162       0.282125587      -67.6264132      0.282125587      -67.6264132      0.929954717      16.2923179       
112.452          0.930419389      16.2094476       0.280738513      -67.6914411      0.280738513      -67.6914411      0.930419486      16.2094493       
113.048          0.930877926      16.1273618       0.279363982      -67.7556957      0.279363982      -67.7556957      0.930878023      16.1273635       
113.644          0.931330342      16.0460478       0.278001828      -67.8191877      0.278001828      -67.8191877      0.931330439      16.0460495       
114.24           0.931776747      15.9654949       0.276651892      -67.8819272      0.276651892      -67.8819272      0.931776844      15.9654966       
114.836          0.932217247      15.8856927       0.275314016      -67.9439245      0.275314016      -67.9439245      0.932217344      15.8856945       
115.432          0.932651946      15.8066309       0.273988044      -68.0051895      0.273988044      -68.0051895      0.932652043      15.8066326       
116.028          0.933080945      15.7282993       0.272673823      -68.0657319      0.272673823      -68.0657319      0.933081043      15.728301        
116.624          0.933504346      15.6506879       0.271371203      -68.1255614      0.271371203      -68.1255614      0.933504443      15.6506897       
117.22           0.933922244      15.5737871       0.270080036      -68.1846873      0.270080036      -68.1846873      0.933922341      15.5737888       
117.816          0.934334735      15.4975871       0.268800176      -68.2431189      0.268800176      -68.2431189      0.934334833      15.4975889       
118.412          0.934741913      15.4220786       0.26753148       -68.3008653      0.26753148       -68.3008653      0.934742011      15.4220803       
119.008          0.935143869      15.3472522       0.266273807      -68.3579353      0.266273807      -68.3579353      0.935143967      15.347254        
119.604          0.935540692      15.273099        0.265027019      -68.4143379      0.265027019      -68.4143379      0.93554079       15.2731008       
120.2            0.93593247       15.1996098       0.263790977      -68.4700814      0.263790977      -68.4700814      0.935932568      15.1996116       
120.796          0.936319287      15.126776        0.26256555       -68.5251745      0.26256555       -68.5251745      0.936319386      15.1267778       
121.392          0.936701229      15.0545889       0.261350603      -68.5796255      0.261350603      -68.5796255      0.936701327      15.0545907       
121.988          0.937078376      14.9830399       0.260146007      -68.6334424      0.260146007      -68.6334424      0.937078475      14.9830418       
122.584          0.93745081       14.9121208       0.258951634      -68.6866333      0.258951634      -68.6866333      0.937450908      14.9121226       
123.18           0.937818608      14.8418233       0.257767358      -68.739206       0.257767358      -68.739206       0.937818706      14.8418251       
123.776          0.938181847      14.7721393       0.256593054      -68.7911685      0.256593054      -68.7911685      0.938181946      14.7721412       
124.372          0.938540604      14.7030609       0.255428601      -68.8425281      0.255428601      -68.8425281      0.938540702      14.7030628       
124.968          0.938894951      14.6345804       0.254273878      -68.8932924      0.254273878      -68.8932924      0.93889505       14.6345822       
125.564          0.939244961      14.5666899       0.253128767      -68.9434689      0.253128767      -68.9434689      0.93924506       14.5666918       
126.16           0.939590705      14.4993821       0.251993151      -68.9930646      0.251993151      -68.9930646      0.939590804      14.4993839       
126.756          0.939932251      14.4326494       0.250866916      -69.0420867      0.250866916      -69.0420867      0.93993235       14.4326512       
127.352          0.940269669      14.3664845       0.249749949      -69.0905421      0.249749949      -69.0905421      0.940269768      14.3664864       
127.948          0.940603025      14.3008804       0.248642137      -69.1384378      0.248642137      -69.1384378      0.940603124      14.3008823       
128.544          0.940932382      14.2358299       0.247543373      -69.1857805      0.247543373      -69.1857805      0.940932482      14.2358318       
129.14           0.941257807      14.171326        0.246453547      -69.2325768      0.246453547      -69.2325768      0.941257906      14.171328        
129.736          0.941579361      14.1073621       0.245372554      -69.2788333      0.245372554      -69.2788333      0.94157946       14.107364        
130.332          0.941897105      14.0439313       0.244300289      -69.3245563      0.244300289      -69.3245563      0.941897204      14.0439332       
130.928          0.9422111        13.981027        0.243236649      -69.3697522      0.243236649      -69.3697522      0.942211199      13.9810289       
131.524          0.942521404      13.9186428       0.242181533      -69.4144271      0.242181533      -69.4144271      0.942521504      13.9186447       
132.12           0.942828076      13.8567721       0.241134841      -69.4585872      0.241134841      -69.4585872      0.942828175      13.8567741       
132.716          0.943131171      13.7954089       0.240096473      -69.5022385      0.240096473      -69.5022385      0.943131271      13.7954108       
133.312          0.943430746      13.7345467       0.239066334      -69.5453869      0.239066334      -69.5453869      0.943430846      13.7345487       
133.908          0.943726855      13.6741797       0.238044328      -69.5880381      0.238044328      -69.5880381      0.943726955      13.6741816       
134.504          0.944019552      13.6143016       0.237030361      -69.630198       0.237030361      -69.630198       0.944019652      13.6143036       
135.1            0.944308888      13.5549068       0.236024339      -69.671872       0.236024339      -69.671872       0.944308988      13.5549088       
135.696          0.944594915      13.4959892       0.235026172      -69.7130658      0.235026172      -69.7130658      0.944595015      13.4959912       
136.292          0.944877683      13.4375433       0.234035771      -69.7537847      0.234035771      -69.7537847      0.944877783      13.4375453       
136.888          0.945157242      13.3795634       0.233053045      -69.7940342      0.233053045      -69.7940342      0.945157342      13.3795654       
137.484          0.94543364       13.3220439       0.232077908      -69.8338195      0.232077908      -69.8338195      0.94543374       13.3220459       
138.08           0.945706924      13.2649794       0.231110274      -69.8731457      0.231110274      -69.8731457      0.945707025      13.2649814       
138.676          0.945977142      13.2083645       0.230150058      -69.912018       0.230150058      -69.912018       0.945977243      13.2083665       
139.272          0.946244339      13.1521939       0.229197176      -69.9504414      0.229197176      -69.9504414      0.946244439      13.152196        
139.868          0.946508559      13.0964625       0.228251546      -69.9884208      0.228251546      -69.9884208      0.94650866       13.0964646       
140.464          0.946769848      13.041165        0.227313088      -70.0259611      0.227313088      -70.0259611      0.946769949      13.0411671       
141.06           0.947028247      12.9862965       0.22638172       -70.063067       0.22638172       -70.063067       0.947028348      12.9862986       
141.656          0.9472838        12.931852        0.225457364      -70.0997433      0.225457364      -70.0997433      0.947283901      12.9318541       
142.252          0.947536548      12.8778266       0.224539943      -70.1359946      0.224539943      -70.1359946      0.94753665       12.8778287       
142.848          0.947786532      12.8242154       0.22362938       -70.1718255      0.22362938       -70.1718255      0.947786634      12.8242175       
143.444          0.948033792      12.7710137       0.222725599      -70.2072405      0.222725599      -70.2072405      0.948033894      12.7710158       
144.04           0.948278368      12.7182168       0.221828527      -70.2422439      0.221828527      -70.2422439      0.948278469      12.7182189       
144.636          0.948520297      12.6658201       0.220938089      -70.2768401      0.220938089      -70.2768401      0.948520398      12.6658223       
145.232          0.948759618      12.6138191       0.220054213      -70.3110335      0.220054213      -70.3110335      0.94875972       12.6138213       
145.828          0.948996369      12.5622094       0.219176828      -70.3448282      0.219176828      -70.3448282      0.94899647       12.5622115       
146.424          0.949230585      12.5109864       0.218305864      -70.3782284      0.218305864      -70.3782284      0.949230686      12.5109885       
147.02           0.949462303      12.4601458       0.217441252      -70.4112381      0.217441252      -70.4112381      0.949462404      12.460148        
147.616          0.949691557      12.4096835       0.216582923      -70.4438615      0.216582923      -70.4438615      0.949691659      12.4096857       
148.212          0.949918383      12.3595951       0.215730809      -70.4761025      0.215730809      -70.4761025      0.949918485      12.3595973       
148.808          0.950142815      12.3098765       0.214884845      -70.5079649      0.214884845      -70.5079649      0.950142917      12.3098787       
149.404          0.950364886      12.2605237       0.214044965      -70.5394527      0.214044965      -70.5394527      0.950364988      12.2605258       
150              0.950584628      12.2115325       0.213211104      -70.5705696      0.213211104      -70.5705696      0.95058473       12.2115347       
150.596          0.950802075      12.162899        0.212383198      -70.6013193      0.212383198      -70.6013193      0.950802177      12.1629012       
151.192          0.951017257      12.1146194       0.211561185      -70.6317056      0.211561185      -70.6317056      0.951017359      12.1146216       
151.788          0.951230206      12.0666896       0.210745003      -70.6617321      0.210745003      -70.6617321      0.951230308      12.0666918       
152.384          0.951440952      12.019106        0.209934591      -70.6914023      0.209934591      -70.6914023      0.951441055      12.0191083       
152.98           0.951649526      11.9718648       0.209129887      -70.7207198      0.209129887      -70.7207198      0.951649629      11.971867        
153.576          0.951855957      11.9249623       0.208330834      -70.7496879      0.208330834      -70.7496879      0.95185606       11.9249645       
154.172          0.952060274      11.8783948       0.207537371      -70.7783102      0.207537371      -70.7783102      0.952060376      11.878397        
154.768          0.952262505      11.8321587       0.206749442      -70.80659        0.206749442      -70.80659        0.952262607      11.8321609       
155.364          0.952462678      11.7862505       0.205966989      -70.8345306      0.205966989      -70.8345306      0.952462781      11.7862528       
155.96           0.952660822      11.7406668       0.205189956      -70.8621353      0.205189956      -70.8621353      0.952660925      11.740669        
156.556          0.952856963      11.695404        0.204418287      -70.8894073      0.204418287      -70.8894073      0.952857066      11.6954063       
157.152          0.953051127      11.6504588       0.203651928      -70.9163497      0.203651928      -70.9163497      0.95305123       11.650461        
157.748          0.953243342      11.6058277       0.202890824      -70.9429657      0.202890824      -70.9429657      0.953243445      11.60583         
158.344          0.953433631      11.5615077       0.202134922      -70.9692584      0.202134922      -70.9692584      0.953433735      11.56151         
158.94           0.953622022      11.5174952       0.20138417       -70.9952308      0.20138417       -70.9952308      0.953622125      11.5174975       
159.536          0.953808539      11.4737872       0.200638515      -71.0208859      0.200638515      -71.0208859      0.953808642      11.4737896       
160.132          0.953993205      11.4303805       0.199897905      -71.0462266      0.199897905      -71.0462266      0.953993309      11.4303829       
160.728          0.954176046      11.387272        0.199162292      -71.0712559      0.199162292      -71.0712559      0.95417615       11.3872743       
161.324          0.954357085      11.3444585       0.198431624      -71.0959766      0.198431624      -71.0959766      0.954357189      11.3444609       
161.92           0.954536345      11.3019371       0.197705852      -71.1203916      0.197705852      -71.1203916      0.954536449      11.3019395       
162.516          0.954713849      11.2597047       0.196984928      -71.1445036      0.196984928      -71.1445036      0.954713953      11.2597071       
163.112          0.954889619      11.2177584       0.196268803      -71.1683154      0.196268803      -71.1683154      0.954889723      11.2177608       
163.708          0.955063678      11.1760953       0.195557431      -71.1918296      0.195557431      -71.1918296      0.955063782      11.1760977       
164.304          0.955236048      11.1347125       0.194850764      -71.2150491      0.194850764      -71.2150491      0.955236152      11.1347148       
164.9            0.955406749      11.0936071       0.194148756      -71.2379763      0.194148756      -71.2379763      0.955406853      11.0936095       
165.496          0.955575803      11.0527763       0.193451362      -71.2606139      0.193451362      -71.2606139      0.955575907      11.0527787       
166.092          0.95574323       11.0122174       0.192758537      -71.2829644      0.192758537      -71.2829644      0.955743335      11.0122198       
166.688          0.955909052      10.9719277       0.192070236      -71.3050304      0.192070236      -71.3050304      0.955909156      10.9719301       
167.284          0.956073287      10.9319045       0.191386415      -71.3268144      0.191386415      -71.3268144      0.956073392      10.9319069       
167.88           0.956235957      10.892145        0.190707032      -71.3483188      0.190707032      -71.3483188      0.956236061      10.8921475       
168.476          0.956397079      10.8526468       0.190032043      -71.369546       0.190032043      -71.369546       0.956397184      10.8526492       
169.072          0.956556674      10.8134071       0.189361406      -71.3904984      0.189361406      -71.3904984      0.956556779      10.8134096       
169.668          0.95671476       10.7744235       0.188695079      -71.4111784      0.188695079      -71.4111784      0.956714864      10.774426        
170.264          0.956871355      10.7356934       0.188033022      -71.4315883      0.188033022      -71.4315883      0.95687146       10.7356959       
170.86           0.957026479      10.6972144       0.187375194      -71.4517303      0.187375194      -71.4517303      0.957026584      10.6972169       
171.456          0.957180148      10.6589839       0.186721554      -71.4716069      0.186721554      -71.4716069      0.957180253      10.6589864       
172.052          0.957332381      10.6209997       0.186072064      -71.4912201      0.186072064      -71.4912201      0.957332486      10.6210021       
172.648          0.957483194      10.5832591       0.185426683      -71.5105721      0.185426683      -71.5105721      0.957483299      10.5832616       
173.244          0.957632606      10.54576         0.184785373      -71.5296652      0.184785373      -71.5296652      0.957632711      10.5457625       
173.84           0.957780632      10.5085          0.184148096      -71.5485015      0.184148096      -71.5485015      0.957780737      10.5085025       
174.436          0.95792729       10.4714768       0.183514815      -71.5670831      0.183514815      -71.5670831      0.957927395      10.4714793       
175.032          0.958072595      10.4346881       0.182885492      -71.5854121      0.182885492      -71.5854121      0.958072701      10.4346906       
175.628          0.958216565      10.3981316       0.18226009       -71.6034905      0.18226009       -71.6034905      0.95821667       10.3981341       
176.224          0.958359214      10.3618052       0.181638573      -71.6213204      0.181638573      -71.6213204      0.958359319      10.3618077       
176.82           0.958500558      10.3257067       0.181020905      -71.6389037      0.181020905      -71.6389037      0.958500663      10.3257092       
177.416          0.958640613      10.2898338       0.180407051      -71.6562424      0.180407051      -71.6562424      0.958640718      10.2898364       
178.012          0.958779393      10.2541846       0.179796976      -71.6733386      0.179796976      -71.6733386      0.958779499      10.2541872       
178.608          0.958916915      10.2187568       0.179190645      -71.690194       0.179190645      -71.690194       0.95891702       10.2187594       
179.204          0.959053191      10.1835484       0.178588024      -71.7068107      0.178588024      -71.7068107      0.959053297      10.183551        
179.8            0.959188238      10.1485574       0.177989079      -71.7231904      0.177989079      -71.7231904      0.959188344      10.14856         
180.396          0.959322068      10.1137817       0.177393777      -71.739335       0.177393777      -71.739335       0.959322174      10.1137843       
180.992          0.959454697      10.0792193       0.176802084      -71.7552464      0.176802084      -71.7552464      0.959454803      10.0792219       
181.588          0.959586137      10.0448682       0.17621397       -71.7709264      0.17621397       -71.7709264      0.959586243      10.0448708       
182.184          0.959716403      10.0107265       0.1756294        -71.7863767      0.1756294        -71.7863767      0.959716509      10.0107291       
182.78           0.959845508      9.97679223       0.175048343      -71.801599       0.175048343      -71.801599       0.959845614      9.97679485       
183.376          0.959973465      9.94306353       0.174470769      -71.8165952      0.174470769      -71.8165952      0.959973571      9.94306615       
183.972          0.960100287      9.90953849       0.173896645      -71.8313669      0.173896645      -71.8313669      0.960100393      9.90954112       
184.568          0.960225987      9.87621526       0.173325942      -71.8459158      0.173325942      -71.8459158      0.960226093      9.8762179        
185.164          0.960350577      9.84309199       0.172758629      -71.8602435      0.172758629      -71.8602435      0.960350684      9.84309464       
185.76           0.960474071      9.81016688       0.172194675      -71.8743518      0.172194675      -71.8743518      0.960474178      9.81016953       
186.356          0.96059648       9.77743812       0.171634052      -71.8882423      0.171634052      -71.8882423      0.960596587      9.77744078       
186.952          0.960717817      9.74490395       0.171076731      -71.9019164      0.171076731      -71.9019164      0.960717924      9.74490662       
187.548          0.960838093      9.71256262       0.170522681      -71.9153759      0.170522681      -71.9153759      0.9608382        9.7125653        
188.144          0.96095732       9.6804124        0.169971875      -71.9286223      0.169971875      -71.9286223      0.960957427      9.68041508       
188.74           0.96107551       9.64845157       0.169424284      -71.9416571      0.169424284      -71.9416571      0.961075617      9.64845427       
189.336          0.961192674      9.61667846       0.168879881      -71.9544819      0.168879881      -71.9544819      0.961192781      9.61668116       
189.932          0.961308823      9.58509139       0.168338638      -71.9670981      0.168338638      -71.9670981      0.961308931      9.5850941        
190.528          0.961423969      9.55368871       0.167800527      -71.9795073      0.167800527      -71.9795073      0.961424077      9.55369143       
191.124          0.961538123      9.5224688        0.167265521      -71.9917109      0.167265521      -71.9917109      0.96153823       9.52247153       
191.72           0.961651295      9.49143004       0.166733595      -72.0037103      0.166733595      -72.0037103      0.961651402      9.49143278       
192.316          0.961763496      9.46057085       0.166204721      -72.0155071      0.166204721      -72.0155071      0.961763603      9.46057359       
192.912          0.961874736      9.42988965       0.165678874      -72.0271025      0.165678874      -72.0271025      0.961874843      9.42989239       
193.508          0.961985026      9.39938488       0.165156027      -72.038498       0.165156027      -72.038498       0.961985133      9.39938763       
194.104          0.962094375      9.36905501       0.164636156      -72.049695       0.164636156      -72.049695       0.962094483      9.36905777       
194.7            0.962202795      9.33889852       0.164119235      -72.0606949      0.164119235      -72.0606949      0.962202903      9.33890129       
195.296          0.962310295      9.30891391       0.163605238      -72.0714989      0.163605238      -72.0714989      0.962310403      9.30891669       
195.892          0.962416885      9.2790997        0.163094143      -72.0821084      0.163094143      -72.0821084      0.962416993      9.27910249       
196.488          0.962522573      9.24945442       0.162585923      -72.0925248      0.162585923      -72.0925248      0.962522682      9.24945721       
197.084          0.962627371      9.21997662       0.162080556      -72.1027492      0.162080556      -72.1027492      0.962627479      9.21997942       
197.68           0.962731287      9.19066487       0.161578017      -72.1127831      0.161578017      -72.1127831      0.962731396      9.19066768       
198.276          0.962834331      9.16151775       0.161078282      -72.1226276      0.161078282      -72.1226276      0.962834439      9.16152056       
198.872          0.962936511      9.13253386       0.16058133       -72.132284       0.16058133       -72.132284       0.962936619      9.13253667       
199.468          0.963037837      9.10371181       0.160087135      -72.1417535      0.160087135      -72.1417535      0.963037945      9.10371463       
200.064          0.963138317      9.07505023       0.159595676      -72.1510375      0.159595676      -72.1510375      0.963138426      9.07505307       
200.66           0.963237961      9.04654778       0.159106931      -72.1601369      0.159106931      -72.1601369      0.96323807       9.04655062       
201.256          0.963336776      9.01820311       0.158620876      -72.1690532      0.158620876      -72.1690532      0.963336885      9.01820596       
201.852          0.963434773      8.9900149        0.15813749       -72.1777874      0.15813749       -72.1777874      0.963434882      8.99001776       
202.448          0.963531958      8.96198184       0.157656751      -72.1863406      0.157656751      -72.1863406      0.963532067      8.96198471       
203.044          0.96362834       8.93410264       0.157178638      -72.1947141      0.157178638      -72.1947141      0.963628449      8.93410551       
203.64           0.963723928      8.90637601       0.156703129      -72.202909       0.156703129      -72.202909       0.963724037      8.90637889       
204.236          0.963818729      8.8788007        0.156230203      -72.2109264      0.156230203      -72.2109264      0.963818838      8.87880358       
204.832          0.963912752      8.85137544       0.155759839      -72.2187673      0.155759839      -72.2187673      0.963912861      8.85137834       
205.428          0.964006004      8.82409901       0.155292017      -72.226433       0.155292017      -72.226433       0.964006113      8.82410191       
206.024          0.964098493      8.79697017       0.154826716      -72.2339244      0.154826716      -72.2339244      0.964098602      8.79697308       
206.62           0.964190227      8.76998773       0.154363916      -72.2412427      0.154363916      -72.2412427      0.964190336      8.76999064       
207.216          0.964281213      8.74315047       0.153903597      -72.2483889      0.153903597      -72.2483889      0.964281323      8.74315339       
207.812          0.964371459      8.71645721       0.153445739      -72.2553641      0.153445739      -72.2553641      0.964371569      8.71646014       
208.408          0.964460973      8.68990679       0.152990323      -72.2621692      0.152990323      -72.2621692      0.964461083      8.68990973       
209.004          0.964549761      8.66349805       0.152537329      -72.2688053      0.152537329      -72.2688053      0.964549871      8.66350099       
209.6            0.96463783       8.63722984       0.152086739      -72.2752734      0.152086739      -72.2752734      0.96463794       8.63723278       
210.196          0.964725189      8.61110102       0.151638533      -72.2815745      0.151638533      -72.2815745      0.964725299      8.61110397       
210.792          0.964811843      8.58511047       0.151192692      -72.2877096      0.151192692      -72.2877096      0.964811953      8.58511343       
211.388          0.9648978        8.55925709       0.150749199      -72.2936797      0.150749199      -72.2936797      0.96489791       8.55926006       
211.984          0.964983066      8.53353977       0.150308034      -72.2994857      0.150308034      -72.2994857      0.964983177      8.53354275       
212.58           0.965067649      8.50795744       0.149869179      -72.3051286      0.149869179      -72.3051286      0.96506776       8.50796042       
213.176          0.965151555      8.48250901       0.149432617      -72.3106093      0.149432617      -72.3106093      0.965151665      8.48251201       
213.772          0.96523479       8.45719343       0.14899833       -72.3159287      0.14899833       -72.3159287      0.965234901      8.45719643       
214.368          0.965317361      8.43200964       0.1485663        -72.3210878      0.1485663        -72.3210878      0.965317472      8.43201265       
214.964          0.965399275      8.4069566        0.14813651       -72.3260875      0.14813651       -72.3260875      0.965399385      8.40695962       
215.56           0.965480537      8.38203329       0.147708942      -72.3309286      0.147708942      -72.3309286      0.965480648      8.38203631       
216.156          0.965561154      8.35723868       0.14728358       -72.3356121      0.14728358       -72.3356121      0.965561265      8.3572417        
216.752          0.965641132      8.33257176       0.146860407      -72.3401389      0.146860407      -72.3401389      0.965641243      8.3325748        
217.348          0.965720478      8.30803155       0.146439405      -72.3445097      0.146439405      -72.3445097      0.965720589      8.30803459       
217.944          0.965799196      8.28361705       0.146020559      -72.3487255      0.146020559      -72.3487255      0.965799307      8.28362009       
218.54           0.965877294      8.25932728       0.145603851      -72.3527871      0.145603851      -72.3527871      0.965877405      8.25933033       
219.136          0.965954777      8.23516128       0.145189267      -72.3566954      0.145189267      -72.3566954      0.965954888      8.23516434       
219.732          0.966031651      8.2111181        0.144776789      -72.3604511      0.144776789      -72.3604511      0.966031762      8.21112116       
220.328          0.966107921      8.18719678       0.144366402      -72.3640552      0.144366402      -72.3640552      0.966108033      8.18719985       
220.924          0.966183594      8.16339639       0.143958091      -72.3675084      0.143958091      -72.3675084      0.966183705      8.16339947       
221.52           0.966258674      8.139716         0.143551839      -72.3708115      0.143551839      -72.3708115      0.966258785      8.13971909       
222.116          0.966333167      8.1161547        0.143147631      -72.3739653      0.143147631      -72.3739653      0.966333279      8.1161578        
222.712          0.96640708       8.09271158       0.142745452      -72.3769706      0.142745452      -72.3769706      0.966407191      8.09271468       
223.308          0.966480416      8.06938573       0.142345287      -72.3798281      0.142345287      -72.3798281      0.966480528      8.06938884       
223.904          0.966553182      8.04617628       0.141947122      -72.3825387      0.141947122      -72.3825387      0.966553294      8.04617939       
224.5            0.966625383      8.02308233       0.14155094       -72.3851031      0.14155094       -72.3851031      0.966625495      8.02308545       
225.096          0.966697023      8.00010302       0.141156728      -72.3875221      0.141156728      -72.3875221      0.966697136      8.00010615       
225.692          0.966768109      7.97723748       0.140764471      -72.3897964      0.140764471      -72.3897964      0.966768221      7.97724062       
226.288          0.966838645      7.95448486       0.140374155      -72.3919267      0.140374155      -72.3919267      0.966838757      7.954488         
226.884          0.966908636      7.93184431       0.139985765      -72.3939137      0.139985765      -72.3939137      0.966908748      7.93184747       
227.48           0.966978087      7.90931501       0.139599288      -72.3957582      0.139599288      -72.3957582      0.966978199      7.90931816       
228.076          0.967047003      7.88689611       0.13921471       -72.3974609      0.13921471       -72.3974609      0.967047115      7.88689927       
228.672          0.967115388      7.86458679       0.138832016      -72.3990225      0.138832016      -72.3990225      0.967115501      7.86458997       
229.268          0.967183249      7.84238626       0.138451193      -72.4004437      0.138451193      -72.4004437      0.967183361      7.84238944       
229.864          0.967250588      7.82029369       0.138072228      -72.4017252      0.138072228      -72.4017252      0.967250701      7.82029688       
230.46           0.967317412      7.7983083        0.137695106      -72.4028676      0.137695106      -72.4028676      0.967317525      7.7983115        
231.056          0.967383724      7.7764293        0.137319816      -72.4038717      0.137319816      -72.4038717      0.967383837      7.7764325        
231.652          0.967449529      7.75465591       0.136946344      -72.404738       0.136946344      -72.404738       0.967449642      7.75465911       
232.248          0.967514832      7.73298735       0.136574676      -72.4054674      0.136574676      -72.4054674      0.967514945      7.73299056       
232.844          0.967579637      7.71142286       0.136204801      -72.4060603      0.136204801      -72.4060603      0.96757975       7.71142608       
233.44           0.967643949      7.68996168       0.135836704      -72.4065175      0.135836704      -72.4065175      0.967644062      7.6899649        
234.036          0.967707771      7.66860306       0.135470374      -72.4068396      0.135470374      -72.4068396      0.967707884      7.66860629       
234.632          0.967771109      7.64734626       0.135105798      -72.4070272      0.135105798      -72.4070272      0.967771222      7.6473495        
235.228          0.967833965      7.62619054       0.134742963      -72.407081       0.134742963      -72.407081       0.967834079      7.62619379       
235.824          0.967896346      7.60513518       0.134381858      -72.4070015      0.134381858      -72.4070015      0.96789646       7.60513843       
236.42           0.967958254      7.58417945       0.13402247       -72.4067895      0.13402247       -72.4067895      0.967958368      7.58418271       
237.016          0.968019694      7.56332263       0.133664787      -72.4064454      0.133664787      -72.4064454      0.968019808      7.5633259        
237.612          0.96808067       7.54256403       0.133308798      -72.40597        0.133308798      -72.40597        0.968080784      7.54256731       
238.208          0.968141186      7.52190294       0.13295449       -72.4053637      0.13295449       -72.4053637      0.9681413        7.52190622       
238.804          0.968201246      7.50133866       0.132601851      -72.4046272      0.132601851      -72.4046272      0.968201361      7.50134195       
239.4            0.968260854      7.48087052       0.132250871      -72.4037611      0.132250871      -72.4037611      0.968260968      7.48087381       
239.996          0.968320014      7.46049782       0.131901537      -72.4027659      0.131901537      -72.4027659      0.968320128      7.46050112       
240              0.968320409      7.46036141       0.131899198      -72.4027588      0.131899198      -72.4027588      0.968320523      7.46036471       
